Ir  O Ir  O 
 1.0000000000000000
    12.8085319999999996    0.0000000000000000    0.0000000000000000
     0.0000000000000000    6.4702430000000000    0.0000000000000000
     0.0000000000000000    0.0000000000000000   25.8809719999999999
Ir  O Ir  O
  16  32  15  33
Selective dynamics
Cartesian
  1.6010664999999999  3.2351215000000000  4.8526822500000000   F   F   F
  4.8031994999999998  3.2351215000000000  4.8526822500000000   F   F   F
  1.6010664999999999  0.0000000000000000  1.6175607500000000   F   F   F
  4.8031994999999998  0.0000000000000000  1.6175607500000000   F   F   F
  0.0000000000000000  3.2351215000000000  1.6175607500000000   F   F   F
  3.2021329999999999  3.2351215000000000  1.6175607500000000   F   F   F
  0.0000000000000000  0.0000000000000000  4.8526822500000000   F   F   F
  3.2021329999999999  0.0000000000000000  4.8526822500000000   F   F   F
  1.5657035365803484  3.2351215000000000 11.4374073417430022   F   F   F
  4.8115471754653729  3.2351215000000000 11.2824720073123981   F   F   F
  1.5956781787061562  0.0000000000000000  8.0644920413489221   F   F   F
  4.8076609822157854  0.0000000000000000  8.0757061705196609   F   F   F
  0.0270365738170977  3.2351215000000000  8.1264831669394990   F   F   F
  3.2086139073858515  3.2351215000000000  8.0806044791593727   F   F   F
 -0.0624513918087457  0.0000000000000000 11.2423729958983198   F   F   F
  3.2031708051591732  0.0000000000000000 11.2484872338572899   F   F   F
  0.0000000000000000  3.2351215000000000  3.6132425009199376   F   F   F
  3.2021329999999999  3.2351215000000000  3.6132425009199376   F   F   F
  0.0000000000000000  0.0000000000000000  0.3781210009199379   F   F   F
  3.2021329999999999  0.0000000000000000  0.3781210009199379   F   F   F
  1.6010664999999999  5.2308032509199833  4.8526822500000000   F   F   F
  4.8031994999999998  5.2308032509199833  4.8526822500000000   F   F   F
  1.6010664999999999  1.9956817509199831  1.6175607500000000   F   F   F
  4.8031994999999998  1.9956817509199831  1.6175607500000000   F   F   F
  0.0000000000000000  3.2351215000000000  6.0921219990800619   F   F   F
  3.2021329999999999  3.2351215000000000  6.0921219990800619   F   F   F
  0.0000000000000000  0.0000000000000000  2.8570004990800624   F   F   F
  3.2021329999999999  0.0000000000000000  2.8570004990800624   F   F   F
  1.6010664999999999  1.2394397490800166  4.8526822500000000   F   F   F
  4.8031994999999998  1.2394397490800166  4.8526822500000000   F   F   F
  1.6010664999999999  4.4745612490800166  1.6175607500000000   F   F   F
  4.8031994999999998  4.4745612490800166  1.6175607500000000   F   F   F
  0.2402093317170506  3.2351215000000000 10.0384886153738968   F   F   F
  3.1893225914743120  3.2351215000000000 10.0567344349038521   F   F   F
 12.7958862301469640  0.0000000000000000  6.8427699904660182   F   F   F
  3.2050875889011605  0.0000000000000000  6.8370471864785012   F   F   F
  1.5942685246162898  5.2617168953112445 11.4232286913684238   F   F   F
  4.8132487127163985  5.2390098319593577 11.3510463722089447   F   F   F
  1.6144051713936032  1.9937431649331532  8.0277819015900747   F   F   F
  4.8078582071011828  1.9953716019920997  8.0888876743793698   F   F   F
  0.5260284291481409  3.2351215000000000 12.8879546723165603   F   F   F
  3.2428588283428286  3.2351215000000000 12.4609576538112350   F   F   F
 12.7992821399787147  0.0000000000000000  9.3027229719703062   F   F   F
  3.1984601831765858  0.0000000000000000  9.2987195341996749   F   F   F
  1.5942685246162898  1.2085261046887565 11.4232286913684238   F   F   F
  4.8132487127163985  1.2312331680405990 11.3510463722089447   F   F   F
  1.6144051713936032  4.4764998350668446  8.0277819015900747   F   F   F
  4.8078582071011828  4.4748713980079007  8.0888876743793698   F   F   F
  8.0053324999999997  3.2351215000000000  4.8526822500000000   F   F   F
 11.2074654999999996  3.2351215000000000  4.8526822500000000   F   F   F
  8.0053324999999997  0.0000000000000000  1.6175607500000000   F   F   F
 11.2074654999999996  0.0000000000000000  1.6175607500000000   F   F   F
  6.4042659999999998  3.2351215000000000  1.6175607500000000   F   F   F
  9.6063989999999997  3.2351215000000000  1.6175607500000000   F   F   F
  6.4042659999999998  0.0000000000000000  4.8526822500000000   F   F   F
  9.6063989999999997  0.0000000000000000  4.8526822500000000   F   F   F
  8.0495407194785376  3.2351215000000000 11.4201616769821683   F   F   F
  8.0291101705524461  0.0000000000000000  8.0956574815068159   F   F   F
 11.1838398544382400  0.0000000000000000  8.1017122719173340   F   F   F
  6.4044751798470623  3.2351215000000000  8.0789354978002752   F   F   F
  9.5860910009655633  3.2351215000000000  8.1303160871708915   F   F   F
  6.4318996072547092  0.0000000000000000 11.2419399387423713   F   F   F
  9.6983773147087522  0.0000000000000000 11.5533591058180711   F   F   F
  6.4042659999999998  3.2351215000000000  3.6132425009199376   F   F   F
  9.6063989999999997  3.2351215000000000  3.6132425009199376   F   F   F
  6.4042659999999998  0.0000000000000000  0.3781210009199379   F   F   F
  9.6063989999999997  0.0000000000000000  0.3781210009199379   F   F   F
  8.0053324999999997  5.2308032509199833  4.8526822500000000   F   F   F
 11.2074654999999996  5.2308032509199833  4.8526822500000000   F   F   F
  8.0053324999999997  1.9956817509199831  1.6175607500000000   F   F   F
 11.2074654999999996  1.9956817509199831  1.6175607500000000   F   F   F
  6.4042659999999998  3.2351215000000000  6.0921219990800619   F   F   F
  9.6063989999999997  3.2351215000000000  6.0921219990800619   F   F   F
  6.4042659999999998  0.0000000000000000  2.8570004990800624   F   F   F
  9.6063989999999997  0.0000000000000000  2.8570004990800624   F   F   F
  8.0053324999999997  1.2394397490800166  4.8526822500000000   F   F   F
 11.2074654999999996  1.2394397490800166  4.8526822500000000   F   F   F
  8.0053324999999997  4.4745612490800166  1.6175607500000000   F   F   F
 11.2074654999999996  4.4745612490800166  1.6175607500000000   F   F   F
  6.4268441293955050  3.2351215000000000 10.0566275939474288   F   F   F
  9.3915351013707120  3.2351215000000000 10.0358228303849639   F   F   F
  6.4127960360914011  0.0000000000000000  6.8457059736969859   F   F   F
  9.6083737979288397  0.0000000000000000  6.8491160495165655   F   F   F
  8.0205107292564524  5.2514626486086415 11.4021130161136863   F   F   F
 11.2048244019565537  5.2717586863089680 11.3463184441630940   F   F   F
  7.9989411571242064  1.9911262543051822  8.0397464001231072   F   F   F
 11.2049778208164259  1.9999305143444852  8.1286541536359209   F   F   F
  6.3795801974005837  3.2351215000000000 12.4632470766128982   F   F   F
  9.0914764275795399  3.2351215000000000 12.8741152274595247   F   F   F
  6.4085733268249383  0.0000000000000000  9.3020143599642715   F   F   F
  9.6042829651019908  0.0000000000000000  9.3671174044273187   F   F   F
  8.0205107292564524  1.2187803513913589 11.4021130161136863   F   F   F
 11.2048244019565537  1.1984843136910315 11.3463184441630940   F   F   F
  7.9989411571242064  4.4791167456948182  8.0397464001231072   F   F   F
 11.2049778208164259  4.4703124856555121  8.1286541536359209   F   F   F
  9.6040482485151646  0.0000000000000000 13.3247538960126093   T   T   T
