Ir  O Ir  O                             
   1.00000000000000     
    12.8085319999999996    0.0000000000000000    0.0000000000000000
     0.0000000000000000    6.4702430000000000    0.0000000000000000
     0.0000000000000000    0.0000000000000000   25.8809719999999999
   Ir   O    Ir   O 
    16    34    16    34
Selective dynamics
Direct
  0.1250000000000000  0.5000000000000000  0.1875000000000000   F   F   F
  0.3750000000000000  0.5000000000000000  0.1875000000000000   F   F   F
  0.1250000000000000  0.0000000000000000  0.0625000000000000   F   F   F
  0.3750000000000000  0.0000000000000000  0.0625000000000000   F   F   F
  0.0000000000000000  0.5000000000000000  0.0625000000000000   F   F   F
  0.2500000000000000  0.5000000000000000  0.0625000000000000   F   F   F
  0.0000000000000000  0.0000000000000000  0.1875000000000000   F   F   F
  0.2500000000000000  0.0000000000000000  0.1875000000000000   F   F   F
  0.1251254471424924  0.5009555264057141  0.4381020028302937   T   T   T
  0.3749011505860100  0.5003707170161869  0.4386059683812019   T   T   T
  0.1249252090746404  0.0012094711624870  0.3131399676059606   T   T   T
  0.3735060679676052  0.0010075593243178  0.3126430616484056   T   T   T
  0.0000733429301937  0.5010640381129232  0.3129910938309629   T   T   T
  0.2498204830277645  0.5010218263369529  0.3129417480309178   T   T   T
  0.9996608874990842  0.0007510423431891  0.4422012596646586   T   T   T
  0.2506982712395976  0.0007742686735406  0.4422456148405419   T   T   T
  0.0000000000000000  0.5000000000000000  0.1396099999999976   F   F   F
  0.2500000000000000  0.5000000000000000  0.1396099999999976   F   F   F
  0.0000000000000000  0.0000000000000000  0.0146099999999976   F   F   F
  0.2500000000000000  0.0000000000000000  0.0146099999999976   F   F   F
  0.1250000000000000  0.8084399999999974  0.1875000000000000   F   F   F
  0.3750000000000000  0.8084399999999974  0.1875000000000000   F   F   F
  0.1250000000000000  0.3084399999999974  0.0625000000000000   F   F   F
  0.3750000000000000  0.3084399999999974  0.0625000000000000   F   F   F
  0.0000000000000000  0.5000000000000000  0.2353900000000024   F   F   F
  0.2500000000000000  0.5000000000000000  0.2353900000000024   F   F   F
  0.0000000000000000  0.0000000000000000  0.1103900000000024   F   F   F
  0.2500000000000000  0.0000000000000000  0.1103900000000024   F   F   F
  0.1250000000000000  0.1915600000000026  0.1875000000000000   F   F   F
  0.3750000000000000  0.1915600000000026  0.1875000000000000   F   F   F
  0.1250000000000000  0.6915600000000026  0.0625000000000000   F   F   F
  0.3750000000000000  0.6915600000000026  0.0625000000000000   F   F   F
  1.0000261964217469  0.5004587128867479  0.3898141031518123   T   T   T
  0.2499983153028722  0.5008491380946215  0.3897068156601141   T   T   T
  0.0006511999275869  0.0003293164203775  0.2647632833823665   T   T   T
  0.2495957239787759  0.0005775769280129  0.2647226830519380   T   T   T
  0.1250334751638895  0.8100602656113882  0.4363070364597991   T   T   T
  0.3765614509441736  0.8087106138230470  0.4387526159245114   T   T   T
  0.1248098927892465  0.3088342735493510  0.3128383386320276   T   T   T
  0.3746536958582532  0.3089724365650898  0.3127454043466512   T   T   T
  0.0006031849354037  0.5007561523428014  0.4838214073054725   T   T   T
  0.2497394895011665  0.5006505912155162  0.4839620676440577   T   T   T
  0.9996678967812999  1.0014180013532206  0.3611539816846522   T   T   T
  0.2501078221040727  0.0020445576342830  0.3614260779719681   T   T   T
  0.1250166946391603  0.1919562150740869  0.4364163049557257   T   T   T
  0.3767603854198649  0.1919250272926063  0.4388818270585165   T   T   T
  0.1249071464574194  0.6935862409750289  0.3127168701238228   T   T   T
  0.3746945535837350  0.6930908753945152  0.3126278227246667   T   T   T
  0.2476763158682077  0.0002677681124982  0.5116824724765525   T   T   T
  0.0032142319900728  0.0007300048026930  0.5115637273364465   T   T   T
  0.6250000000000000  0.5000000000000000  0.1875000000000000   F   F   F
  0.8750000000000000  0.5000000000000000  0.1875000000000000   F   F   F
  0.6250000000000000  0.0000000000000000  0.0625000000000000   F   F   F
  0.8750000000000000  0.0000000000000000  0.0625000000000000   F   F   F
  0.5000000000000000  0.5000000000000000  0.0625000000000000   F   F   F
  0.7500000000000000  0.5000000000000000  0.0625000000000000   F   F   F
  0.5000000000000000  0.0000000000000000  0.1875000000000000   F   F   F
  0.7500000000000000  0.0000000000000000  0.1875000000000000   F   F   F
  0.6250170329751349  0.4996271202362768  0.4380259449486372   T   T   T
  0.8754502071414829  0.5001929740154637  0.4385663538673005   T   T   T
  0.6257856857221847  0.0007623973985185  0.3125540715842426   T   T   T
  0.8759709557593403  1.0010141151907173  0.3124991984874571   T   T   T
  0.4998664007688442  0.5007933796313797  0.3129784203835705   T   T   T
  0.7502798437627333  0.5007376533765682  0.3128746597661681   T   T   T
  0.5022281484165650 -0.0003129404994840  0.4358201390034243   T   T   T
  0.7480237892837940 -0.0006850313977594  0.4383194018629245   T   T   T
  0.5000000000000000  0.5000000000000000  0.1396099999999976   F   F   F
  0.7500000000000000  0.5000000000000000  0.1396099999999976   F   F   F
  0.5000000000000000  0.0000000000000000  0.0146099999999976   F   F   F
  0.7500000000000000  0.0000000000000000  0.0146099999999976   F   F   F
  0.6250000000000000  0.8084399999999974  0.1875000000000000   F   F   F
  0.8750000000000000  0.8084399999999974  0.1875000000000000   F   F   F
  0.6250000000000000  0.3084399999999974  0.0625000000000000   F   F   F
  0.8750000000000000  0.3084399999999974  0.0625000000000000   F   F   F
  0.5000000000000000  0.5000000000000000  0.2353900000000024   F   F   F
  0.7500000000000000  0.5000000000000000  0.2353900000000024   F   F   F
  0.5000000000000000  0.0000000000000000  0.1103900000000024   F   F   F
  0.7500000000000000  0.0000000000000000  0.1103900000000024   F   F   F
  0.6250000000000000  0.1915600000000026  0.1875000000000000   F   F   F
  0.8750000000000000  0.1915600000000026  0.1875000000000000   F   F   F
  0.6250000000000000  0.6915600000000026  0.0625000000000000   F   F   F
  0.8750000000000000  0.6915600000000026  0.0625000000000000   F   F   F
  0.4995047081967268  0.4999831029108253  0.3897814552715433   T   T   T
  0.7509441986743338  0.4999495391417237  0.3896033708195956   T   T   T
  0.4998607110723934  0.0001609196308371  0.2648148472483263   T   T   T
  0.7499975507080754  0.0010568049046692  0.2645588381844663   T   T   T
  0.6248222417698479  0.8056219555886557  0.4355345495192881   T   T   T
  0.8747262128696882  0.8087031624877509  0.4383589748071416   T   T   T
  0.6251083707105651  0.3090306237326049  0.3128410532167775   T   T   T
  0.8754678648649986  0.3086909613947877  0.3123783778332820   T   T   T
  0.5004661002170339  0.5007307517175442  0.4841565309071760   T   T   T
  0.7496626242912516  0.5002239614577175  0.4840052169965910   T   T   T
  0.4989771577339057  1.0007333440301185  0.3597660580922129   T   T   T
  0.7514943392439762  1.0017777418176481  0.3601617139184253   T   T   T
  0.6246468773138034  0.1931513618034613  0.4368706691934319   T   T   T
  0.8740307810959906  0.1915989376761125  0.4391237083706402   T   T   T
  0.6251060369717091  0.6925046011188832  0.3127336839435862   T   T   T
  0.8753109533972401  0.6932818891890793  0.3124538657340310   T   T   T
  0.7264487718317696 -0.0101840362887844  0.5146404785740144   T   T   T
  0.6292086435996839  0.9854181178242604  0.5295763290785592   T   T   T
 
  0.00000000E+00  0.00000000E+00  0.00000000E+00
  0.00000000E+00  0.00000000E+00  0.00000000E+00
  0.00000000E+00  0.00000000E+00  0.00000000E+00
  0.00000000E+00  0.00000000E+00  0.00000000E+00
  0.00000000E+00  0.00000000E+00  0.00000000E+00
  0.00000000E+00  0.00000000E+00  0.00000000E+00
  0.00000000E+00  0.00000000E+00  0.00000000E+00
  0.00000000E+00  0.00000000E+00  0.00000000E+00
  0.00000000E+00  0.00000000E+00  0.00000000E+00
  0.00000000E+00  0.00000000E+00  0.00000000E+00
  0.00000000E+00  0.00000000E+00  0.00000000E+00
  0.00000000E+00  0.00000000E+00  0.00000000E+00
  0.00000000E+00  0.00000000E+00  0.00000000E+00
  0.00000000E+00  0.00000000E+00  0.00000000E+00
  0.00000000E+00  0.00000000E+00  0.00000000E+00
  0.00000000E+00  0.00000000E+00  0.00000000E+00
  0.00000000E+00  0.00000000E+00  0.00000000E+00
  0.00000000E+00  0.00000000E+00  0.00000000E+00
  0.00000000E+00  0.00000000E+00  0.00000000E+00
  0.00000000E+00  0.00000000E+00  0.00000000E+00
  0.00000000E+00  0.00000000E+00  0.00000000E+00
  0.00000000E+00  0.00000000E+00  0.00000000E+00
  0.00000000E+00  0.00000000E+00  0.00000000E+00
  0.00000000E+00  0.00000000E+00  0.00000000E+00
  0.00000000E+00  0.00000000E+00  0.00000000E+00
  0.00000000E+00  0.00000000E+00  0.00000000E+00
  0.00000000E+00  0.00000000E+00  0.00000000E+00
  0.00000000E+00  0.00000000E+00  0.00000000E+00
  0.00000000E+00  0.00000000E+00  0.00000000E+00
  0.00000000E+00  0.00000000E+00  0.00000000E+00
  0.00000000E+00  0.00000000E+00  0.00000000E+00
  0.00000000E+00  0.00000000E+00  0.00000000E+00
  0.00000000E+00  0.00000000E+00  0.00000000E+00
  0.00000000E+00  0.00000000E+00  0.00000000E+00
  0.00000000E+00  0.00000000E+00  0.00000000E+00
  0.00000000E+00  0.00000000E+00  0.00000000E+00
  0.00000000E+00  0.00000000E+00  0.00000000E+00
  0.00000000E+00  0.00000000E+00  0.00000000E+00
  0.00000000E+00  0.00000000E+00  0.00000000E+00
  0.00000000E+00  0.00000000E+00  0.00000000E+00
  0.00000000E+00  0.00000000E+00  0.00000000E+00
  0.00000000E+00  0.00000000E+00  0.00000000E+00
  0.00000000E+00  0.00000000E+00  0.00000000E+00
  0.00000000E+00  0.00000000E+00  0.00000000E+00
  0.00000000E+00  0.00000000E+00  0.00000000E+00
  0.00000000E+00  0.00000000E+00  0.00000000E+00
  0.00000000E+00  0.00000000E+00  0.00000000E+00
  0.00000000E+00  0.00000000E+00  0.00000000E+00
  0.00000000E+00  0.00000000E+00  0.00000000E+00
  0.00000000E+00  0.00000000E+00  0.00000000E+00
  0.00000000E+00  0.00000000E+00  0.00000000E+00
  0.00000000E+00  0.00000000E+00  0.00000000E+00
  0.00000000E+00  0.00000000E+00  0.00000000E+00
  0.00000000E+00  0.00000000E+00  0.00000000E+00
  0.00000000E+00  0.00000000E+00  0.00000000E+00
  0.00000000E+00  0.00000000E+00  0.00000000E+00
  0.00000000E+00  0.00000000E+00  0.00000000E+00
  0.00000000E+00  0.00000000E+00  0.00000000E+00
  0.00000000E+00  0.00000000E+00  0.00000000E+00
  0.00000000E+00  0.00000000E+00  0.00000000E+00
  0.00000000E+00  0.00000000E+00  0.00000000E+00
  0.00000000E+00  0.00000000E+00  0.00000000E+00
  0.00000000E+00  0.00000000E+00  0.00000000E+00
  0.00000000E+00  0.00000000E+00  0.00000000E+00
  0.00000000E+00  0.00000000E+00  0.00000000E+00
  0.00000000E+00  0.00000000E+00  0.00000000E+00
  0.00000000E+00  0.00000000E+00  0.00000000E+00
  0.00000000E+00  0.00000000E+00  0.00000000E+00
  0.00000000E+00  0.00000000E+00  0.00000000E+00
  0.00000000E+00  0.00000000E+00  0.00000000E+00
  0.00000000E+00  0.00000000E+00  0.00000000E+00
  0.00000000E+00  0.00000000E+00  0.00000000E+00
  0.00000000E+00  0.00000000E+00  0.00000000E+00
  0.00000000E+00  0.00000000E+00  0.00000000E+00
  0.00000000E+00  0.00000000E+00  0.00000000E+00
  0.00000000E+00  0.00000000E+00  0.00000000E+00
  0.00000000E+00  0.00000000E+00  0.00000000E+00
  0.00000000E+00  0.00000000E+00  0.00000000E+00
  0.00000000E+00  0.00000000E+00  0.00000000E+00
  0.00000000E+00  0.00000000E+00  0.00000000E+00
  0.00000000E+00  0.00000000E+00  0.00000000E+00
  0.00000000E+00  0.00000000E+00  0.00000000E+00
  0.00000000E+00  0.00000000E+00  0.00000000E+00
  0.00000000E+00  0.00000000E+00  0.00000000E+00
  0.00000000E+00  0.00000000E+00  0.00000000E+00
  0.00000000E+00  0.00000000E+00  0.00000000E+00
  0.00000000E+00  0.00000000E+00  0.00000000E+00
  0.00000000E+00  0.00000000E+00  0.00000000E+00
  0.00000000E+00  0.00000000E+00  0.00000000E+00
  0.00000000E+00  0.00000000E+00  0.00000000E+00
  0.00000000E+00  0.00000000E+00  0.00000000E+00
  0.00000000E+00  0.00000000E+00  0.00000000E+00
  0.00000000E+00  0.00000000E+00  0.00000000E+00
  0.00000000E+00  0.00000000E+00  0.00000000E+00
  0.00000000E+00  0.00000000E+00  0.00000000E+00
  0.00000000E+00  0.00000000E+00  0.00000000E+00
  0.00000000E+00  0.00000000E+00  0.00000000E+00
  0.00000000E+00  0.00000000E+00  0.00000000E+00
  0.00000000E+00  0.00000000E+00  0.00000000E+00
  0.00000000E+00  0.00000000E+00  0.00000000E+00
