Ir  O Ir  O 
 1.0000000000000000
    12.8085319999999996    0.0000000000000000    0.0000000000000000
     0.0000000000000000    6.4702430000000000    0.0000000000000000
     0.0000000000000000    0.0000000000000000   25.8809719999999999
  16  34  16  34
Selective dynamics
Cartesian
  1.6010664999999999  3.2351215000000000  4.8526822500000000   F   F   F
  4.8031994999999998  3.2351215000000000  4.8526822500000000   F   F   F
  1.6010664999999999  0.0000000000000000  1.6175607500000000   F   F   F
  4.8031994999999998  0.0000000000000000  1.6175607500000000   F   F   F
  0.0000000000000000  3.2351215000000000  1.6175607500000000   F   F   F
  3.2021329999999999  3.2351215000000000  1.6175607500000000   F   F   F
  0.0000000000000000  0.0000000000000000  4.8526822500000000   F   F   F
  3.2021329999999999  0.0000000000000000  4.8526822500000000   F   F   F
  1.6002876033285425  3.2435931176606769 11.3374901407850555   T   T   T
  4.8021308564971461  3.2422845912899168 11.3550628763798311   T   T   T
  1.5995799516365032  0.0008227952290438  8.1082643027949590   T   T   T
  4.7845473173795945  0.0017180677288522  8.0892431167477437   T   T   T
  0.0026772798809522  3.2361552530140356  8.1002644203061109   T   T   T
  3.1997248276918255  3.2367719453468422  8.1009593345432425   T   T   T
 -0.0164621500813184  0.0088274550957976 11.4521956048803233   T   T   T
  3.2139443610974179  0.0078509656075744 11.4528900503207272   T   T   T
  0.0000000000000000  3.2351215000000000  3.6132425009199376   F   F   F
  3.2021329999999999  3.2351215000000000  3.6132425009199376   F   F   F
  0.0000000000000000  0.0000000000000000  0.3781210009199379   F   F   F
  3.2021329999999999  0.0000000000000000  0.3781210009199379   F   F   F
  1.6010664999999999  5.2308032509199833  4.8526822500000000   F   F   F
  4.8031994999999998  5.2308032509199833  4.8526822500000000   F   F   F
  1.6010664999999999  1.9956817509199831  1.6175607500000000   F   F   F
  4.8031994999999998  1.9956817509199831  1.6175607500000000   F   F   F
  0.0000000000000000  3.2351215000000000  6.0921219990800619   F   F   F
  3.2021329999999999  3.2351215000000000  6.0921219990800619   F   F   F
  0.0000000000000000  0.0000000000000000  2.8570004990800624   F   F   F
  3.2021329999999999  0.0000000000000000  2.8570004990800624   F   F   F
  1.6010664999999999  1.2394397490800166  4.8526822500000000   F   F   F
  4.8031994999999998  1.2394397490800166  4.8526822500000000   F   F   F
  1.6010664999999999  4.4745612490800166  1.6175607500000000   F   F   F
  4.8031994999999998  4.4745612490800166  1.6175607500000000   F   F   F
 -0.0015274141510693  3.2425060682144999 10.0875654774352004   T   T   T
  3.2057109460103739  3.2410436262302520 10.0880450386442266   T   T   T
  0.0083893800749694  0.0004765519397022  6.8527088105605358   T   T   T
  3.1918148926030505  0.0014332641775416  6.8517542624176837   T   T   T
  1.5978661985009861  5.2450387387415942 11.2984712427344114   T   T   T
  4.8337396311735130  5.2398736086257376 11.3915150749730358   T   T   T
  1.5986628219706456  1.9912680310564557  8.0996959085119951   T   T   T
  4.7975226737893655  1.9935879678265891  8.0861978842349327   T   T   T
  0.0057772141239914  3.2434030760888524 12.5215460783392878   T   T   T
  3.1944487296264992  3.2420667739586269 12.5248285856779304   T   T   T
 -0.0079007446147611 -0.0013515080895242  9.3546440379626610   T   T   T
  3.2080668464543827  0.0000084919238127  9.3572958083353530   T   T   T
  1.5983188328144688  1.2417138741905338 11.2865396341290456   T   T   T
  4.8334682909694733  1.2456865439610170 11.3866335511615357   T   T   T
  1.5991173262076557  4.4812321280659422  8.0970112794789149   T   T   T
  4.7976306654635428  4.4802083180953396  8.0826522191864090   T   T   T
  3.1660559673993132  0.0142219596597524 13.2476563509619591   T   T   T
  0.0409289012237109  0.0214834808758714 13.2469310888538594   T   T   T
  8.0053324999999997  3.2351215000000000  4.8526822500000000   F   F   F
 11.2074654999999996  3.2351215000000000  4.8526822500000000   F   F   F
  8.0053324999999997  0.0000000000000000  1.6175607500000000   F   F   F
 11.2074654999999996  0.0000000000000000  1.6175607500000000   F   F   F
  6.4042659999999998  3.2351215000000000  1.6175607500000000   F   F   F
  9.6063989999999997  3.2351215000000000  1.6175607500000000   F   F   F
  6.4042659999999998  0.0000000000000000  4.8526822500000000   F   F   F
  9.6063989999999997  0.0000000000000000  4.8526822500000000   F   F   F
  8.0028213186905326  3.2435341183777502 11.3060630056407181   T   T   T
 11.2065526436998510  3.2455559493567114 11.3542827943887392   T   T   T
  8.0094616410873805  0.0014699479728273  8.0947626090168399   T   T   T
 11.2212875179120797 -0.0000818337249986  8.0891751137150223   T   T   T
  6.3997868679621464  3.2368488193258749  8.0933579092983088   T   T   T
  9.6114297587584012  3.2366488999426575  8.0938006117352437   T   T   T
  6.4501916962444339  0.0093606244922656 11.3092997982114021   T   T   T
  9.5558523398135318  0.0111907480497386 11.3391145137493226   T   T   T
  6.4042659999999998  3.2351215000000000  3.6132425009199376   F   F   F
  9.6063989999999997  3.2351215000000000  3.6132425009199376   F   F   F
  6.4042659999999998  0.0000000000000000  0.3781210009199379   F   F   F
  9.6063989999999997  0.0000000000000000  0.3781210009199379   F   F   F
  8.0053324999999997  5.2308032509199833  4.8526822500000000   F   F   F
 11.2074654999999996  5.2308032509199833  4.8526822500000000   F   F   F
  8.0053324999999997  1.9956817509199831  1.6175607500000000   F   F   F
 11.2074654999999996  1.9956817509199831  1.6175607500000000   F   F   F
  6.4042659999999998  3.2351215000000000  6.0921219990800619   F   F   F
  9.6063989999999997  3.2351215000000000  6.0921219990800619   F   F   F
  6.4042659999999998  0.0000000000000000  2.8570004990800624   F   F   F
  9.6063989999999997  0.0000000000000000  2.8570004990800624   F   F   F
  8.0053324999999997  1.2394397490800166  4.8526822500000000   F   F   F
 11.2074654999999996  1.2394397490800166  4.8526822500000000   F   F   F
  8.0053324999999997  4.4745612490800166  1.6175607500000000   F   F   F
 11.2074654999999996  4.4745612490800166  1.6175607500000000   F   F   F
  6.3864997447804441  3.2394862406675573 10.0738202292197325   T   T   T
  9.6230273427590181  3.2445154699729710 10.0750767200600642   T   T   T
  6.4035757474156743  0.0016225732687239  6.8539290774106130   T   T   T
  9.6054859440524858  0.0017153246374678  6.8507248018820386   T   T   T
  7.9990287410378533  5.2163711341557280 11.1912035620958594   T   T   T
 11.1785151223766395  5.2408017484671801 11.3884421536787830   T   T   T
  8.0041771518871609  1.9959308910132438  8.0903589463882213   T   T   T
 11.2154951503922646  1.9923070762846327  8.0832871060841995   T   T   T
  6.4210074431542949  3.2403972680049131 12.5125467914140529   T   T   T
  9.5844115078941954  3.2349228291117442 12.5124506029779869   T   T   T
  6.3689076916285696 -0.0033114377664647  9.3157335155208738   T   T   T
  9.6411948387164568 -0.0025256447473954  9.3207958342715624   T   T   T
  7.9947356941831424  1.2723313606079207 11.1918112659900686   T   T   T
 11.1802632192517670  1.2486142356445642 11.3715552759210166   T   T   T
  8.0037831431605486  4.4776245933832932  8.0857748108036951   T   T   T
 11.2157879109053287  4.4789251684745617  8.0803221974019195   T   T   T
  9.1721692089716900  0.1423804836432099 13.2310099141067052   T   T   T
  7.9928802177684810 -0.3668230271131033 13.6298940837599485   T   T   T
