Ir  O Ir  O
 1.0000000000000000
  12.8085319999999996   0.0000000000000000   0.0000000000000000
   0.0000000000000000   6.4702430000000000   0.0000000000000000
   0.0000000000000000   0.0000000000000000  25.8809719999999999
Ir  O Ir  O
16  34  16  34  
Selective dynamics
Direct
  0.1250000000000000  0.5000000000000000  0.1875000000000000 F F F
  0.3750000000000000  0.5000000000000000  0.1875000000000000 F F F
  0.1250000000000000  0.0000000000000000  0.0625000000000000 F F F
  0.3750000000000000  0.0000000000000000  0.0625000000000000 F F F
  0.0000000000000000  0.5000000000000000  0.0625000000000000 F F F
  0.2500000000000000  0.5000000000000000  0.0625000000000000 F F F
  0.0000000000000000  0.0000000000000000  0.1875000000000000 F F F
  0.2500000000000000  0.0000000000000000  0.1875000000000000 F F F
  0.1249675711495120  0.5000000000000000  0.4381759284817120 T T T
  0.3748913904504430  0.5000000000000000  0.4386798163946610 T T T
  0.1248446322357420  0.0000000000000000  0.3133045386202720 T T T
  0.3733221971382650  0.0000000000000000  0.3126030653822480 T T T
  0.0001095559880326  0.5000000000000000  0.3130387766115560 T T T
  0.2497184335940400  0.5000000000000000  0.3130263222842370 T T T
  0.9993710674735610  0.0000000000000000  0.4425133466760580 T T T
  0.2504041674423330  0.0000000000000000  0.4425358581918890 T T T
  0.0000000000000000  0.5000000000000000  0.1396099999999980 F F F
  0.2500000000000000  0.5000000000000000  0.1396099999999980 F F F
  0.0000000000000000  0.0000000000000000  0.0146099999999976 F F F
  0.2500000000000000  0.0000000000000000  0.0146099999999976 F F F
  0.1250000000000000  0.8084399999999970  0.1875000000000000 F F F
  0.3750000000000000  0.8084399999999970  0.1875000000000000 F F F
  0.1250000000000000  0.3084399999999970  0.0625000000000000 F F F
  0.3750000000000000  0.3084399999999970  0.0625000000000000 F F F
  0.0000000000000000  0.5000000000000000  0.2353900000000020 F F F
  0.2500000000000000  0.5000000000000000  0.2353900000000020 F F F
  0.0000000000000000  0.0000000000000000  0.1103900000000020 F F F
  0.2500000000000000  0.0000000000000000  0.1103900000000020 F F F
  0.1250000000000000  0.1915600000000030  0.1875000000000000 F F F
  0.3750000000000000  0.1915600000000030  0.1875000000000000 F F F
  0.1250000000000000  0.6915600000000030  0.0625000000000000 F F F
  0.3750000000000000  0.6915600000000030  0.0625000000000000 F F F
  0.9999040430484880  0.5000000000000000  0.3898761462288010 T T T
  0.2500043791840770  0.5000000000000000  0.3897908981051690 T T T
  0.0004776622176905  0.0000000000000000  0.2647750721909150 T T T
  0.2493299963820520  0.0000000000000000  0.2647576603145940 T T T
  0.1248118733622830  0.8091320694222760  0.4364994765698070 T T T
  0.3765666572011600  0.8086007911626250  0.4394772897573840 T T T
  0.1247277579088500  0.3076263843667920  0.3129563668871140 T T T
  0.3745178190622620  0.3080070274100780  0.3126433652089700 T T T
  0.0004484099099287  0.5000000000000000  0.4839356090637350 T T T
  0.2496009907160970  0.5000000000000000  0.4840235101785380 T T T
  0.9994801325318010  0.0000000000000000  0.3614818125297250 T T T
  0.2502330859612980  0.0000000000000000  0.3615223857201640 T T T
  0.1248118733622830  0.1908679305777240  0.4364994765698070 T T T
  0.3765666572011600  0.1913992088373670  0.4394772897573840 T T T
  0.1247277579088500  0.6923736156332080  0.3129563668871140 T T T
  0.3745178190622620  0.6919929725898940  0.3126433652089700 T T T
  0.2478630399089140  0.0000000000000000  0.5119659196776210 T T T
  0.0031821436268800  0.0000000000000000  0.5119031734315770 T T T
  0.6250000000000000  0.5000000000000000  0.1875000000000000 F F F
  0.8750000000000000  0.5000000000000000  0.1875000000000000 F F F
  0.6250000000000000  0.0000000000000000  0.0625000000000000 F F F
  0.8750000000000000  0.0000000000000000  0.0625000000000000 F F F
  0.5000000000000000  0.5000000000000000  0.0625000000000000 F F F
  0.7500000000000000  0.5000000000000000  0.0625000000000000 F F F
  0.5000000000000000  0.0000000000000000  0.1875000000000000 F F F
  0.7500000000000000  0.0000000000000000  0.1875000000000000 F F F
  0.6249045491775860  0.5000000000000000  0.4379357224458640 T T T
  0.8749594061109890  0.5000000000000000  0.4387471426573060 T T T
  0.6248812654874810  0.0000000000000000  0.3121400103065710 T T T
  0.8765281638890841  0.0000000000000000  0.3126037565372210 T T T
  0.4995982538214610  0.5000000000000000  0.3128744661894560 T T T
  0.7501692920737280  0.5000000000000000  0.3128881229159650 T T T
  0.5019180718028200  0.0000000000000000  0.4357715329357460 T T T
  0.7478605316435460  0.0000000000000000  0.4358199541957430 T T T
  0.5000000000000000  0.5000000000000000  0.1396099999999980 F F F
  0.7500000000000000  0.5000000000000000  0.1396099999999980 F F F
  0.5000000000000000  0.0000000000000000  0.0146099999999976 F F F
  0.7500000000000000  0.0000000000000000  0.0146099999999976 F F F
  0.6250000000000000  0.8084399999999970  0.1875000000000000 F F F
  0.8750000000000000  0.8084399999999970  0.1875000000000000 F F F
  0.6250000000000000  0.3084399999999970  0.0625000000000000 F F F
  0.8750000000000000  0.3084399999999970  0.0625000000000000 F F F
  0.5000000000000000  0.5000000000000000  0.2353900000000020 F F F
  0.7500000000000000  0.5000000000000000  0.2353900000000020 F F F
  0.5000000000000000  0.0000000000000000  0.1103900000000020 F F F
  0.7500000000000000  0.0000000000000000  0.1103900000000020 F F F
  0.6250000000000000  0.1915600000000030  0.1875000000000000 F F F
  0.8750000000000000  0.1915600000000030  0.1875000000000000 F F F
  0.6250000000000000  0.6915600000000030  0.0625000000000000 F F F
  0.8750000000000000  0.6915600000000030  0.0625000000000000 F F F
  0.4993298741852430  0.5000000000000000  0.3896402389453470 T T T
  0.7505674871849520  0.5000000000000000  0.3896577196376540 T T T
  0.4995907610229720  0.0000000000000000  0.2645357213314630 T T T
  0.7502667455738180  0.0000000000000000  0.2645280536940080 T T T
  0.6247982295028720  0.8078472977387821  0.4364482555429990 T T T
  0.8732557663717340  0.8087607406245640  0.4398271732749280 T T T
  0.6247477120014010  0.3083611028466390  0.3124893405167700 T T T
  0.8754982612696200  0.3079549776253710  0.3125954914699140 T T T
  0.5006233820274349  0.5000000000000000  0.4841675991471060 T T T
  0.7491001560054260  0.5000000000000000  0.4841873462575210 T T T
  0.4984420379708400  0.0000000000000000  0.3595423753930620 T T T
  0.7512325544617230  0.0000000000000000  0.3595857918089540 T T T
  0.6247982295028720  0.1921527022612180  0.4364482555429990 T T T
  0.8732557663717340  0.1912392593754360  0.4398271732749280 T T T
  0.6247477120014010  0.6916388971533320  0.3124893405167700 T T T
  0.8754982612696200  0.6920450223746289  0.3125954914699140 T T T
  0.6755150249291190  0.0000000000000000  0.6628912044519590 T T T
  0.5748143711445270  0.0000000000000000  0.6628328594272190 T T T
