Ir  O Ir  O 
 1.0000000000000000
    12.8085319999999996    0.0000000000000000    0.0000000000000000
     0.0000000000000000    6.4702430000000000    0.0000000000000000
     0.0000000000000000    0.0000000000000000   25.8809719999999999
Ir  O Ir  O
  16  32  15  34
Selective dynamics
Cartesian
  1.6010664999999999  3.2351215000000000  4.8526822500000000   F   F   F
  4.8031994999999998  3.2351215000000000  4.8526822500000000   F   F   F
  1.6010664999999999  0.0000000000000000  1.6175607500000000   F   F   F
  4.8031994999999998  0.0000000000000000  1.6175607500000000   F   F   F
  0.0000000000000000  3.2351215000000000  1.6175607500000000   F   F   F
  3.2021329999999999  3.2351215000000000  1.6175607500000000   F   F   F
  0.0000000000000000  0.0000000000000000  4.8526822500000000   F   F   F
  3.2021329999999999  0.0000000000000000  4.8526822500000000   F   F   F
  1.5630264190071250  3.2351215000000000 11.4387820939713354   F   F   F
  4.8102677385805039  3.2351215000000000 11.2678712598521304   F   F   F
  1.6022955996713422  0.0000000000000000  8.0621939390559216   F   F   F
  4.8291923446089742  0.0000000000000000  8.0910149570389294   F   F   F
  0.0291363781232164  3.2351215000000000  8.1254942336509561   F   F   F
  3.2123825791992746  3.2351215000000000  8.0779573533479141   F   F   F
 -0.0618829611121430  0.0000000000000000 11.2326706478242322   F   F   F
  3.1977057215187905  0.0000000000000000 11.2410328706860891   F   F   F
  0.0000000000000000  3.2351215000000000  3.6132425009199376   F   F   F
  3.2021329999999999  3.2351215000000000  3.6132425009199376   F   F   F
  0.0000000000000000  0.0000000000000000  0.3781210009199379   F   F   F
  3.2021329999999999  0.0000000000000000  0.3781210009199379   F   F   F
  1.6010664999999999  5.2308032509199833  4.8526822500000000   F   F   F
  4.8031994999999998  5.2308032509199833  4.8526822500000000   F   F   F
  1.6010664999999999  1.9956817509199831  1.6175607500000000   F   F   F
  4.8031994999999998  1.9956817509199831  1.6175607500000000   F   F   F
  0.0000000000000000  3.2351215000000000  6.0921219990800619   F   F   F
  3.2021329999999999  3.2351215000000000  6.0921219990800619   F   F   F
  0.0000000000000000  0.0000000000000000  2.8570004990800624   F   F   F
  3.2021329999999999  0.0000000000000000  2.8570004990800624   F   F   F
  1.6010664999999999  1.2394397490800166  4.8526822500000000   F   F   F
  4.8031994999999998  1.2394397490800166  4.8526822500000000   F   F   F
  1.6010664999999999  4.4745612490800166  1.6175607500000000   F   F   F
  4.8031994999999998  4.4745612490800166  1.6175607500000000   F   F   F
  0.2368584186839529  3.2351215000000000 10.0386029572310456   F   F   F
  3.1905465209929562  3.2351215000000000 10.0501678991519849   F   F   F
 -0.0077004736438162  0.0000000000000000  6.8409736646687591   F   F   F
  3.2118511464077959  0.0000000000000000  6.8433394089128097   F   F   F
  1.5911339101784618  5.2594463938280791 11.4175300329494451   F   F   F
  4.8025663238097920  5.2352412169217226 11.3113884809110026   F   F   F
  1.6180477660036618  1.9942490848277181  8.0296597288031109   F   F   F
  4.8139098603420836  1.9940051577246378  8.0867611784221687   F   F   F
  0.5172034050641388  3.2351215000000000 12.8830430495879842   F   F   F
  3.2407674417781092  3.2351215000000000 12.4511158757766189   F   F   F
 12.7992681491941784  0.0000000000000000  9.2958331812676214   F   F   F
  3.2074356586321660  0.0000000000000000  9.2973832019469267   F   F   F
  1.5911339101784618  1.2107966061719222 11.4175300329494451   F   F   F
  4.8025663238097920  1.2350017830782309 11.3113884809110026   F   F   F
  1.6180477660036618  4.4759939151722792  8.0296597288031109   F   F   F
  4.8139098603420836  4.4762378422753608  8.0867611784221687   F   F   F
  8.0053324999999997  3.2351215000000000  4.8526822500000000   F   F   F
 11.2074654999999996  3.2351215000000000  4.8526822500000000   F   F   F
  8.0053324999999997  0.0000000000000000  1.6175607500000000   F   F   F
 11.2074654999999996  0.0000000000000000  1.6175607500000000   F   F   F
  6.4042659999999998  3.2351215000000000  1.6175607500000000   F   F   F
  9.6063989999999997  3.2351215000000000  1.6175607500000000   F   F   F
  6.4042659999999998  0.0000000000000000  4.8526822500000000   F   F   F
  9.6063989999999997  0.0000000000000000  4.8526822500000000   F   F   F
  8.0450708861980846  3.2351215000000000 11.4026333082236953   F   F   F
  8.0117260725672637  0.0000000000000000  8.1019228910812426   F   F   F
 11.1852101739221208  0.0000000000000000  8.0935405229483841   F   F   F
  6.4057455004569333  3.2351215000000000  8.0747443388760800   F   F   F
  9.5866932954862687  3.2351215000000000  8.1267588876356101   F   F   F
  6.4170413205135679  0.0000000000000000 11.4399247724244777   F   F   F
  9.6958688493108909  0.0000000000000000 11.4950216257456592   F   F   F
  6.4042659999999998  3.2351215000000000  3.6132425009199376   F   F   F
  9.6063989999999997  3.2351215000000000  3.6132425009199376   F   F   F
  6.4042659999999998  0.0000000000000000  0.3781210009199379   F   F   F
  9.6063989999999997  0.0000000000000000  0.3781210009199379   F   F   F
  8.0053324999999997  5.2308032509199833  4.8526822500000000   F   F   F
 11.2074654999999996  5.2308032509199833  4.8526822500000000   F   F   F
  8.0053324999999997  1.9956817509199831  1.6175607500000000   F   F   F
 11.2074654999999996  1.9956817509199831  1.6175607500000000   F   F   F
  6.4042659999999998  3.2351215000000000  6.0921219990800619   F   F   F
  9.6063989999999997  3.2351215000000000  6.0921219990800619   F   F   F
  6.4042659999999998  0.0000000000000000  2.8570004990800624   F   F   F
  9.6063989999999997  0.0000000000000000  2.8570004990800624   F   F   F
  8.0053324999999997  1.2394397490800166  4.8526822500000000   F   F   F
 11.2074654999999996  1.2394397490800166  4.8526822500000000   F   F   F
  8.0053324999999997  4.4745612490800166  1.6175607500000000   F   F   F
 11.2074654999999996  4.4745612490800166  1.6175607500000000   F   F   F
  6.4158290646900049  3.2351215000000000 10.0431141661537158   F   F   F
  9.3960878219812045  3.2351215000000000 10.0297616560095619   F   F   F
  6.4099816755425678  0.0000000000000000  6.8514802423986190   F   F   F
  9.6068536732817336  0.0000000000000000  6.8508782896645135   F   F   F
  8.0219062972445148  5.2511867996224666 11.2845964312022975   F   F   F
 11.2106777976707175  5.2677524556851338 11.3381424249422675   F   F   F
  7.9965844949067542  1.9900428426272281  8.0350435163063594   F   F   F
 11.2070511181510177  2.0014302577173448  8.1240211160420568   F   F   F
  6.3863727995927499  3.2351215000000000 12.4340236452299919   F   F   F
  9.0861130749955965  3.2351215000000000 12.8530971933488676   F   F   F
  6.4128858064613645  0.0000000000000000  9.3429476876774658   F   F   F
  9.6121222628729601  0.0000000000000000  9.3562668814477288   F   F   F
  8.0219062972445148  1.2190562003775323 11.2845964312022975   F   F   F
 11.2106777976707175  1.2024905443148639 11.3381424249422675   F   F   F
  7.9965844949067542  4.4802001573727690  8.0350435163063594   F   F   F
 11.2070511181510177  4.4688127422826529  8.1240211160420568   F   F   F
  9.5538411570852819  0.0000000000000000 13.2600482866539764   T   T   T
  6.4346456216661441  0.0000000000000000 13.2327108542261094   T   T   T
