Ir  O Ir  O                             
   1.00000000000000     
    12.8085317611999994    0.0000000000000000    0.0000000000000000
     0.0000000000000000   12.9404859999999999    0.0000000000000000
     0.0000000000000000    0.0000000000000000   25.8809719085999994
   Ir   O    Ir   O 
    32    70    32    70
Selective dynamics
Direct
  0.1250000000000000  0.2499999991151824  0.1875000000000000   F   F   F
  0.6250000000000000  0.2499999991151824  0.1875000000000000   F   F   F
  0.3750000000000000  0.2499999991151824  0.1875000000000000   F   F   F
  0.8750000000000000  0.2499999991151824  0.1875000000000000   F   F   F
  0.1250000000000000  0.0000000000000000  0.0625000000000000   F   F   F
  0.6250000000000000  0.0000000000000000  0.0625000000000000   F   F   F
  0.3750000000000000  0.0000000000000000  0.0625000000000000   F   F   F
  0.8750000000000000  0.0000000000000000  0.0625000000000000   F   F   F
  0.0000000000000000  0.2499999991151824  0.0625000000000000   F   F   F
  0.5000000000000000  0.2499999991151824  0.0625000000000000   F   F   F
  0.2500000000000000  0.2499999991151824  0.0625000000000000   F   F   F
  0.7500000000000000  0.2499999991151824  0.0625000000000000   F   F   F
  0.0000000000000000  0.0000000000000000  0.1875000000000000   F   F   F
  0.5000000000000000  0.0000000000000000  0.1875000000000000   F   F   F
  0.2500000000000000  0.0000000000000000  0.1875000000000000   F   F   F
  0.7500000000000000  0.0000000000000000  0.1875000000000000   F   F   F
  0.1253662192968976  0.2220683502964409  0.5015633526741027   T   T   T
  0.6253662192968975  0.2220683502964409  0.5015633526741027   T   T   T
  0.3752683785162637  0.2473389990669549  0.4339243704999045   T   T   T
  0.8752683785162635  0.2473389990669549  0.4339243704999045   T   T   T
  0.1248536206053744  0.0016820957906177  0.3130316008727227   T   T   T
  0.6248536206053744  0.0016820957906177  0.3130316008727227   T   T   T
  0.3749048906207064  0.0019425929512923  0.3129736452106466   T   T   T
  0.8749048906207063  0.0019425929512923  0.3129736452106466   T   T   T
  0.9989517894553046  0.2516218942509901  0.3131795015746372   T   T   T
  0.4989517894553047  0.2516218942509901  0.3131795015746372   T   T   T
  0.2509906673084506  0.2516446338489637  0.3131452019467619   T   T   T
  0.7509906673084505  0.2516446338489637  0.3131452019467619   T   T   T
  0.0023199941280204  0.0004659836218377  0.4419777542713424   T   T   T
  0.5023199941280204  0.0004659836218377  0.4419777542713424   T   T   T
  0.2478058780315608  0.0004177684083973  0.4419441561980449   T   T   T
  0.7478058780315607  0.0004177684083973  0.4419441561980449   T   T   T
  0.0000000000000000  0.2499999991151824  0.1396100070000017   F   F   F
  0.5000000000000000  0.2499999991151824  0.1396100070000017   F   F   F
  0.2500000000000000  0.2499999991151824  0.1396100070000017   F   F   F
  0.7500000000000000  0.2499999991151824  0.1396100070000017   F   F   F
  0.0000000000000000  0.0000000000000000  0.0146099999999976   F   F   F
  0.5000000000000000  0.0000000000000000  0.0146099999999976   F   F   F
  0.2500000000000000  0.0000000000000000  0.0146099999999976   F   F   F
  0.7500000000000000  0.0000000000000000  0.0146099999999976   F   F   F
  0.1250000000000000  0.4042200135693506  0.1875000000000000   F   F   F
  0.6250000000000000  0.4042200135693506  0.1875000000000000   F   F   F
  0.3750000000000000  0.4042200135693506  0.1875000000000000   F   F   F
  0.8750000000000000  0.4042200135693506  0.1875000000000000   F   F   F
  0.1250000000000000  0.1542199994541704  0.0625000000000000   F   F   F
  0.6250000000000000  0.1542199994541704  0.0625000000000000   F   F   F
  0.3750000000000000  0.1542199994541704  0.0625000000000000   F   F   F
  0.8750000000000000  0.1542199994541704  0.0625000000000000   F   F   F
  0.0000000000000000  0.2499999991151824  0.2353899929999983   F   F   F
  0.5000000000000000  0.2499999991151824  0.2353899929999983   F   F   F
  0.2500000000000000  0.2499999991151824  0.2353899929999983   F   F   F
  0.7500000000000000  0.2499999991151824  0.2353899929999983   F   F   F
  0.0000000000000000  0.0000000000000000  0.1103900000000024   F   F   F
  0.5000000000000000  0.0000000000000000  0.1103900000000024   F   F   F
  0.2500000000000000  0.0000000000000000  0.1103900000000024   F   F   F
  0.7500000000000000  0.0000000000000000  0.1103900000000024   F   F   F
  0.1250000000000000  0.0957799996610120  0.1875000000000000   F   F   F
  0.6250000000000000  0.0957799996610120  0.1875000000000000   F   F   F
  0.3750000000000000  0.0957799996610120  0.1875000000000000   F   F   F
  0.8750000000000000  0.0957799996610120  0.1875000000000000   F   F   F
  0.1250000000000000  0.3457799837761897  0.0625000000000000   F   F   F
  0.6250000000000000  0.3457799837761897  0.0625000000000000   F   F   F
  0.3750000000000000  0.3457799837761897  0.0625000000000000   F   F   F
  0.8750000000000000  0.3457799837761897  0.0625000000000000   F   F   F
  0.9926889575676051  0.2512199451886435  0.3867556387750788   T   T   T
  0.4926889575676051  0.2512199451886435  0.3867556387750788   T   T   T
  0.2579383722932330  0.2514652342765304  0.3866962812419525   T   T   T
  0.7579383722932330  0.2514652342765304  0.3866962812419525   T   T   T
  0.0000014227357973  0.0006977754680741  0.2649485532617856   T   T   T
  0.5000014227357973  0.0006977754680741  0.2649485532617856   T   T   T
  0.2497979928173811  0.0007321772183178  0.2649379487973462   T   T   T
  0.7497979928173810  0.0007321772183178  0.2649379487973462   T   T   T
  0.1249874223615564  0.4113172149482078  0.4358321540762559   T   T   T
  0.6249874223615564  0.4113172149482078  0.4358321540762559   T   T   T
  0.3750913656559702  0.4039031884425694  0.4338818647027159   T   T   T
  0.8750913656559700  0.4039031884425694  0.4338818647027159   T   T   T
  0.1248913847401804  0.1559422581395444  0.3131494997327347   T   T   T
  0.6248913847401805  0.1559422581395444  0.3131494997327347   T   T   T
  0.3750180516328814  0.1559055412402235  0.3102782619363221   T   T   T
  0.8750180516328814  0.1559055412402235  0.3102782619363221   T   T   T
  0.9854311362384272  0.2360918802261354  0.4871792518848105   T   T   T
  0.4854311362384272  0.2360918802261354  0.4871792518848105   T   T   T
  0.2652952047534976  0.2360666275685108  0.4870536075991890   T   T   T
  0.7652952047534975  0.2360666275685108  0.4870536075991890   T   T   T
  0.0007954885870480  0.0031165329548589  0.3613031001953726   T   T   T
  0.5007954885870480  0.0031165329548589  0.3613031001953726   T   T   T
  0.2489731380952586  0.0027873101134033  0.3612819953125460   T   T   T
  0.7489731380952586  0.0027873101134033  0.3612819953125460   T   T   T
  0.1251286168243513  0.1020393277918709  0.4459811141391818   T   T   T
  0.6251286168243512  0.1020393277918709  0.4459811141391818   T   T   T
  0.3751102927263536  0.0923769533161824  0.4324458182033534   T   T   T
  0.8751102927263535  0.0923769533161824  0.4324458182033534   T   T   T
  0.1247529517140932  0.3473310027879788  0.3133563343128564   T   T   T
  0.6247529517140932  0.3473310027879788  0.3133563343128564   T   T   T
  0.3750239235737144  0.3476076130012896  0.3103101844556959   T   T   T
  0.8750239235737144  0.3476076130012896  0.3103101844556959   T   T   T
  0.2578257714856729  0.9986142660504527  0.5108478606611802   T   T   T
  0.7578257714856729  0.9986142660504527  0.5108478606611802   T   T   T
  0.9920344315776243  0.9989542673700483  0.5108590754558519   T   T   T
  0.4920344435776253  0.9989542673700483  0.5108590754558519   T   T   T
  0.1257693014160940  0.2600558398828614  0.5658819757989118   T   T   T
  0.6257693304160928  0.2600558398828614  0.5658819757989118   T   T   T
  0.1250000000000000  0.7499999973455402  0.1875000000000000   F   F   F
  0.6250000000000000  0.7499999973455402  0.1875000000000000   F   F   F
  0.3750000000000000  0.7499999973455402  0.1875000000000000   F   F   F
  0.8750000000000000  0.7499999973455402  0.1875000000000000   F   F   F
  0.1250000000000000  0.4999999982303578  0.0625000000000000   F   F   F
  0.6250000000000000  0.4999999982303578  0.0625000000000000   F   F   F
  0.3750000000000000  0.4999999982303578  0.0625000000000000   F   F   F
  0.8750000000000000  0.4999999982303578  0.0625000000000000   F   F   F
  0.0000000000000000  0.7499999973455402  0.0625000000000000   F   F   F
  0.5000000000000000  0.7499999973455402  0.0625000000000000   F   F   F
  0.2500000000000000  0.7499999973455402  0.0625000000000000   F   F   F
  0.7500000000000000  0.7499999973455402  0.0625000000000000   F   F   F
  0.0000000000000000  0.4999999982303578  0.1875000000000000   F   F   F
  0.5000000000000000  0.4999999982303578  0.1875000000000000   F   F   F
  0.2500000000000000  0.4999999982303578  0.1875000000000000   F   F   F
  0.7500000000000000  0.4999999982303578  0.1875000000000000   F   F   F
  0.1253668109827879  0.7220744380102483  0.5015610967447540   T   T   T
  0.6253668109827881  0.7220744380102483  0.5015610967447540   T   T   T
  0.3752674317744583  0.7473443609112743  0.4339263951991656   T   T   T
  0.8752674317744583  0.7473443609112743  0.4339263951991656   T   T   T
  0.1248537543578930  0.5016899202974052  0.3130319075352906   T   T   T
  0.6248537543578929  0.5016899202974052  0.3130319075352906   T   T   T
  0.3749047925091936  0.5019521123158172  0.3129735936169571   T   T   T
  0.8749047925091935  0.5019521123158172  0.3129735936169571   T   T   T
  0.9989542762332039  0.7516243680766620  0.3131845518822559   T   T   T
  0.4989542762332038  0.7516243680766620  0.3131845518822559   T   T   T
  0.2509877989817767  0.7516471729880171  0.3131512143501483   T   T   T
  0.7509877989817766  0.7516471729880171  0.3131512143501483   T   T   T
  0.0023233123900175  0.5004740855116857  0.4419781085414867   T   T   T
  0.5023233123900175  0.5004740855116857  0.4419781085414867   T   T   T
  0.2478019557319739  0.5004251147092091  0.4419425841273285   T   T   T
  0.7478019557319738  0.5004251147092091  0.4419425841273285   T   T   T
  0.0000000000000000  0.7499999973455402  0.1396100070000017   F   F   F
  0.5000000000000000  0.7499999973455402  0.1396100070000017   F   F   F
  0.2500000000000000  0.7499999973455402  0.1396100070000017   F   F   F
  0.7500000000000000  0.7499999973455402  0.1396100070000017   F   F   F
  0.0000000000000000  0.4999999982303578  0.0146099999999976   F   F   F
  0.5000000000000000  0.4999999982303578  0.0146099999999976   F   F   F
  0.2500000000000000  0.4999999982303578  0.0146099999999976   F   F   F
  0.7500000000000000  0.4999999982303578  0.0146099999999976   F   F   F
  0.1250000000000000  0.9042200117997155  0.1875000000000000   F   F   F
  0.6250000000000000  0.9042200117997155  0.1875000000000000   F   F   F
  0.3750000000000000  0.9042200117997155  0.1875000000000000   F   F   F
  0.8750000000000000  0.9042200117997155  0.1875000000000000   F   F   F
  0.1250000000000000  0.6542199976845282  0.0625000000000000   F   F   F
  0.6250000000000000  0.6542199976845282  0.0625000000000000   F   F   F
  0.3750000000000000  0.6542199976845282  0.0625000000000000   F   F   F
  0.8750000000000000  0.6542199976845282  0.0625000000000000   F   F   F
  0.0000000000000000  0.7499999973455402  0.2353899929999983   F   F   F
  0.5000000000000000  0.7499999973455402  0.2353899929999983   F   F   F
  0.2500000000000000  0.7499999973455402  0.2353899929999983   F   F   F
  0.7500000000000000  0.7499999973455402  0.2353899929999983   F   F   F
  0.0000000000000000  0.4999999982303578  0.1103900000000024   F   F   F
  0.5000000000000000  0.4999999982303578  0.1103900000000024   F   F   F
  0.2500000000000000  0.4999999982303578  0.1103900000000024   F   F   F
  0.7500000000000000  0.4999999982303578  0.1103900000000024   F   F   F
  0.1250000000000000  0.5957799978913698  0.1875000000000000   F   F   F
  0.6250000000000000  0.5957799978913698  0.1875000000000000   F   F   F
  0.3750000000000000  0.5957799978913698  0.1875000000000000   F   F   F
  0.8750000000000000  0.5957799978913698  0.1875000000000000   F   F   F
  0.1250000000000000  0.8457799820065475  0.0625000000000000   F   F   F
  0.6250000000000000  0.8457799820065475  0.0625000000000000   F   F   F
  0.3750000000000000  0.8457799820065475  0.0625000000000000   F   F   F
  0.8750000000000000  0.8457799820065475  0.0625000000000000   F   F   F
  0.9926854747719701  0.7512262920789184  0.3867567778313141   T   T   T
  0.4926854747719701  0.7512262920789184  0.3867567778313141   T   T   T
  0.2579418188484524  0.7514626680480064  0.3866923222992483   T   T   T
  0.7579418188484524  0.7514626680480064  0.3866923222992483   T   T   T
 -0.0000035467046464  0.5006983587154447  0.2649474795929487   T   T   T
  0.4999964532953536  0.5006983587154447  0.2649474795929487   T   T   T
  0.2498028919484485  0.5007328783006130  0.2649371746486582   T   T   T
  0.7498028919484485  0.5007328783006130  0.2649371746486582   T   T   T
  0.1249859586919504  0.9113119340387604  0.4358308585794397   T   T   T
  0.6249859586919504  0.9113119340387604  0.4358308585794397   T   T   T
  0.3750915476936404  0.9039058330268225  0.4338827365657316   T   T   T
  0.8750915476936405  0.9039058330268225  0.4338827365657316   T   T   T
  0.1248919155856906  0.6559530057531916  0.3131493271282628   T   T   T
  0.6248919155856906  0.6559530057531916  0.3131493271282628   T   T   T
  0.3750175070225941  0.6559111945079175  0.3102784096432101   T   T   T
  0.8750175070225941  0.6559111945079175  0.3102784096432101   T   T   T
  0.9854445325595358  0.7360830746264939  0.4871822278246333   T   T   T
  0.4854445325595356  0.7360830746264939  0.4871822278246333   T   T   T
  0.2652782124487875  0.7360674065000070  0.4870553033821832   T   T   T
  0.7652782124487876  0.7360674065000070  0.4870553033821832   T   T   T
  0.0007964028262724  0.5031249775392882  0.3612995954314634   T   T   T
  0.5007964028262724  0.5031249775392882  0.3612995954314634   T   T   T
  0.2489771117235431  0.5027889472146184  0.3612829300391608   T   T   T
  0.7489771117235430  0.5027889472146184  0.3612829300391608   T   T   T
  0.1251290446771239  0.6020473156046456  0.4459805322003146   T   T   T
  0.6251290446771239  0.6020473156046456  0.4459805322003146   T   T   T
  0.3751091573640536  0.5923780132677324  0.4324473185065388   T   T   T
  0.8751091573640536  0.5923780132677324  0.4324473185065388   T   T   T
  0.1247534321783037  0.8473343085982759  0.3133572139885243   T   T   T
  0.6247534321783037  0.8473343085982759  0.3133572139885243   T   T   T
  0.3750234600362387  0.8476058351087666  0.3103111686760601   T   T   T
  0.8750234600362385  0.8476058351087666  0.3103111686760601   T   T   T
  0.2578266178496805  0.4986150605423545  0.5108493909552826   T   T   T
  0.7578266178496805  0.4986150605423545  0.5108493909552826   T   T   T
  0.9920342321692135  0.4989550858630640  0.5108604457340805   T   T   T
  0.4920342441692144  0.4989550858630640  0.5108604457340805   T   T   T
  0.1257690462933484  0.7600490719589764  0.5658799234904665   T   T   T
  0.6257690752933471  0.7600490719589764  0.5658799234904665   T   T   T
 
  0.00000000E+00  0.00000000E+00  0.00000000E+00
  0.00000000E+00  0.00000000E+00  0.00000000E+00
  0.00000000E+00  0.00000000E+00  0.00000000E+00
  0.00000000E+00  0.00000000E+00  0.00000000E+00
  0.00000000E+00  0.00000000E+00  0.00000000E+00
  0.00000000E+00  0.00000000E+00  0.00000000E+00
  0.00000000E+00  0.00000000E+00  0.00000000E+00
  0.00000000E+00  0.00000000E+00  0.00000000E+00
  0.00000000E+00  0.00000000E+00  0.00000000E+00
  0.00000000E+00  0.00000000E+00  0.00000000E+00
  0.00000000E+00  0.00000000E+00  0.00000000E+00
  0.00000000E+00  0.00000000E+00  0.00000000E+00
  0.00000000E+00  0.00000000E+00  0.00000000E+00
  0.00000000E+00  0.00000000E+00  0.00000000E+00
  0.00000000E+00  0.00000000E+00  0.00000000E+00
  0.00000000E+00  0.00000000E+00  0.00000000E+00
  0.00000000E+00  0.00000000E+00  0.00000000E+00
  0.00000000E+00  0.00000000E+00  0.00000000E+00
  0.00000000E+00  0.00000000E+00  0.00000000E+00
  0.00000000E+00  0.00000000E+00  0.00000000E+00
  0.00000000E+00  0.00000000E+00  0.00000000E+00
  0.00000000E+00  0.00000000E+00  0.00000000E+00
  0.00000000E+00  0.00000000E+00  0.00000000E+00
  0.00000000E+00  0.00000000E+00  0.00000000E+00
  0.00000000E+00  0.00000000E+00  0.00000000E+00
  0.00000000E+00  0.00000000E+00  0.00000000E+00
  0.00000000E+00  0.00000000E+00  0.00000000E+00
  0.00000000E+00  0.00000000E+00  0.00000000E+00
  0.00000000E+00  0.00000000E+00  0.00000000E+00
  0.00000000E+00  0.00000000E+00  0.00000000E+00
  0.00000000E+00  0.00000000E+00  0.00000000E+00
  0.00000000E+00  0.00000000E+00  0.00000000E+00
  0.00000000E+00  0.00000000E+00  0.00000000E+00
  0.00000000E+00  0.00000000E+00  0.00000000E+00
  0.00000000E+00  0.00000000E+00  0.00000000E+00
  0.00000000E+00  0.00000000E+00  0.00000000E+00
  0.00000000E+00  0.00000000E+00  0.00000000E+00
  0.00000000E+00  0.00000000E+00  0.00000000E+00
  0.00000000E+00  0.00000000E+00  0.00000000E+00
  0.00000000E+00  0.00000000E+00  0.00000000E+00
  0.00000000E+00  0.00000000E+00  0.00000000E+00
  0.00000000E+00  0.00000000E+00  0.00000000E+00
  0.00000000E+00  0.00000000E+00  0.00000000E+00
  0.00000000E+00  0.00000000E+00  0.00000000E+00
  0.00000000E+00  0.00000000E+00  0.00000000E+00
  0.00000000E+00  0.00000000E+00  0.00000000E+00
  0.00000000E+00  0.00000000E+00  0.00000000E+00
  0.00000000E+00  0.00000000E+00  0.00000000E+00
  0.00000000E+00  0.00000000E+00  0.00000000E+00
  0.00000000E+00  0.00000000E+00  0.00000000E+00
  0.00000000E+00  0.00000000E+00  0.00000000E+00
  0.00000000E+00  0.00000000E+00  0.00000000E+00
  0.00000000E+00  0.00000000E+00  0.00000000E+00
  0.00000000E+00  0.00000000E+00  0.00000000E+00
  0.00000000E+00  0.00000000E+00  0.00000000E+00
  0.00000000E+00  0.00000000E+00  0.00000000E+00
  0.00000000E+00  0.00000000E+00  0.00000000E+00
  0.00000000E+00  0.00000000E+00  0.00000000E+00
  0.00000000E+00  0.00000000E+00  0.00000000E+00
  0.00000000E+00  0.00000000E+00  0.00000000E+00
  0.00000000E+00  0.00000000E+00  0.00000000E+00
  0.00000000E+00  0.00000000E+00  0.00000000E+00
  0.00000000E+00  0.00000000E+00  0.00000000E+00
  0.00000000E+00  0.00000000E+00  0.00000000E+00
  0.00000000E+00  0.00000000E+00  0.00000000E+00
  0.00000000E+00  0.00000000E+00  0.00000000E+00
  0.00000000E+00  0.00000000E+00  0.00000000E+00
  0.00000000E+00  0.00000000E+00  0.00000000E+00
  0.00000000E+00  0.00000000E+00  0.00000000E+00
  0.00000000E+00  0.00000000E+00  0.00000000E+00
  0.00000000E+00  0.00000000E+00  0.00000000E+00
  0.00000000E+00  0.00000000E+00  0.00000000E+00
  0.00000000E+00  0.00000000E+00  0.00000000E+00
  0.00000000E+00  0.00000000E+00  0.00000000E+00
  0.00000000E+00  0.00000000E+00  0.00000000E+00
  0.00000000E+00  0.00000000E+00  0.00000000E+00
  0.00000000E+00  0.00000000E+00  0.00000000E+00
  0.00000000E+00  0.00000000E+00  0.00000000E+00
  0.00000000E+00  0.00000000E+00  0.00000000E+00
  0.00000000E+00  0.00000000E+00  0.00000000E+00
  0.00000000E+00  0.00000000E+00  0.00000000E+00
  0.00000000E+00  0.00000000E+00  0.00000000E+00
  0.00000000E+00  0.00000000E+00  0.00000000E+00
  0.00000000E+00  0.00000000E+00  0.00000000E+00
  0.00000000E+00  0.00000000E+00  0.00000000E+00
  0.00000000E+00  0.00000000E+00  0.00000000E+00
  0.00000000E+00  0.00000000E+00  0.00000000E+00
  0.00000000E+00  0.00000000E+00  0.00000000E+00
  0.00000000E+00  0.00000000E+00  0.00000000E+00
  0.00000000E+00  0.00000000E+00  0.00000000E+00
  0.00000000E+00  0.00000000E+00  0.00000000E+00
  0.00000000E+00  0.00000000E+00  0.00000000E+00
  0.00000000E+00  0.00000000E+00  0.00000000E+00
  0.00000000E+00  0.00000000E+00  0.00000000E+00
  0.00000000E+00  0.00000000E+00  0.00000000E+00
  0.00000000E+00  0.00000000E+00  0.00000000E+00
  0.00000000E+00  0.00000000E+00  0.00000000E+00
  0.00000000E+00  0.00000000E+00  0.00000000E+00
  0.00000000E+00  0.00000000E+00  0.00000000E+00
  0.00000000E+00  0.00000000E+00  0.00000000E+00
  0.00000000E+00  0.00000000E+00  0.00000000E+00
  0.00000000E+00  0.00000000E+00  0.00000000E+00
  0.00000000E+00  0.00000000E+00  0.00000000E+00
  0.00000000E+00  0.00000000E+00  0.00000000E+00
  0.00000000E+00  0.00000000E+00  0.00000000E+00
  0.00000000E+00  0.00000000E+00  0.00000000E+00
  0.00000000E+00  0.00000000E+00  0.00000000E+00
  0.00000000E+00  0.00000000E+00  0.00000000E+00
  0.00000000E+00  0.00000000E+00  0.00000000E+00
  0.00000000E+00  0.00000000E+00  0.00000000E+00
  0.00000000E+00  0.00000000E+00  0.00000000E+00
  0.00000000E+00  0.00000000E+00  0.00000000E+00
  0.00000000E+00  0.00000000E+00  0.00000000E+00
  0.00000000E+00  0.00000000E+00  0.00000000E+00
  0.00000000E+00  0.00000000E+00  0.00000000E+00
  0.00000000E+00  0.00000000E+00  0.00000000E+00
  0.00000000E+00  0.00000000E+00  0.00000000E+00
  0.00000000E+00  0.00000000E+00  0.00000000E+00
  0.00000000E+00  0.00000000E+00  0.00000000E+00
  0.00000000E+00  0.00000000E+00  0.00000000E+00
  0.00000000E+00  0.00000000E+00  0.00000000E+00
  0.00000000E+00  0.00000000E+00  0.00000000E+00
  0.00000000E+00  0.00000000E+00  0.00000000E+00
  0.00000000E+00  0.00000000E+00  0.00000000E+00
  0.00000000E+00  0.00000000E+00  0.00000000E+00
  0.00000000E+00  0.00000000E+00  0.00000000E+00
  0.00000000E+00  0.00000000E+00  0.00000000E+00
  0.00000000E+00  0.00000000E+00  0.00000000E+00
  0.00000000E+00  0.00000000E+00  0.00000000E+00
  0.00000000E+00  0.00000000E+00  0.00000000E+00
  0.00000000E+00  0.00000000E+00  0.00000000E+00
  0.00000000E+00  0.00000000E+00  0.00000000E+00
  0.00000000E+00  0.00000000E+00  0.00000000E+00
  0.00000000E+00  0.00000000E+00  0.00000000E+00
  0.00000000E+00  0.00000000E+00  0.00000000E+00
  0.00000000E+00  0.00000000E+00  0.00000000E+00
  0.00000000E+00  0.00000000E+00  0.00000000E+00
  0.00000000E+00  0.00000000E+00  0.00000000E+00
  0.00000000E+00  0.00000000E+00  0.00000000E+00
  0.00000000E+00  0.00000000E+00  0.00000000E+00
  0.00000000E+00  0.00000000E+00  0.00000000E+00
  0.00000000E+00  0.00000000E+00  0.00000000E+00
  0.00000000E+00  0.00000000E+00  0.00000000E+00
  0.00000000E+00  0.00000000E+00  0.00000000E+00
  0.00000000E+00  0.00000000E+00  0.00000000E+00
  0.00000000E+00  0.00000000E+00  0.00000000E+00
  0.00000000E+00  0.00000000E+00  0.00000000E+00
  0.00000000E+00  0.00000000E+00  0.00000000E+00
  0.00000000E+00  0.00000000E+00  0.00000000E+00
  0.00000000E+00  0.00000000E+00  0.00000000E+00
  0.00000000E+00  0.00000000E+00  0.00000000E+00
  0.00000000E+00  0.00000000E+00  0.00000000E+00
  0.00000000E+00  0.00000000E+00  0.00000000E+00
  0.00000000E+00  0.00000000E+00  0.00000000E+00
  0.00000000E+00  0.00000000E+00  0.00000000E+00
  0.00000000E+00  0.00000000E+00  0.00000000E+00
  0.00000000E+00  0.00000000E+00  0.00000000E+00
  0.00000000E+00  0.00000000E+00  0.00000000E+00
  0.00000000E+00  0.00000000E+00  0.00000000E+00
  0.00000000E+00  0.00000000E+00  0.00000000E+00
  0.00000000E+00  0.00000000E+00  0.00000000E+00
  0.00000000E+00  0.00000000E+00  0.00000000E+00
  0.00000000E+00  0.00000000E+00  0.00000000E+00
  0.00000000E+00  0.00000000E+00  0.00000000E+00
  0.00000000E+00  0.00000000E+00  0.00000000E+00
  0.00000000E+00  0.00000000E+00  0.00000000E+00
  0.00000000E+00  0.00000000E+00  0.00000000E+00
  0.00000000E+00  0.00000000E+00  0.00000000E+00
  0.00000000E+00  0.00000000E+00  0.00000000E+00
  0.00000000E+00  0.00000000E+00  0.00000000E+00
  0.00000000E+00  0.00000000E+00  0.00000000E+00
  0.00000000E+00  0.00000000E+00  0.00000000E+00
  0.00000000E+00  0.00000000E+00  0.00000000E+00
  0.00000000E+00  0.00000000E+00  0.00000000E+00
  0.00000000E+00  0.00000000E+00  0.00000000E+00
  0.00000000E+00  0.00000000E+00  0.00000000E+00
  0.00000000E+00  0.00000000E+00  0.00000000E+00
  0.00000000E+00  0.00000000E+00  0.00000000E+00
  0.00000000E+00  0.00000000E+00  0.00000000E+00
  0.00000000E+00  0.00000000E+00  0.00000000E+00
  0.00000000E+00  0.00000000E+00  0.00000000E+00
  0.00000000E+00  0.00000000E+00  0.00000000E+00
  0.00000000E+00  0.00000000E+00  0.00000000E+00
  0.00000000E+00  0.00000000E+00  0.00000000E+00
  0.00000000E+00  0.00000000E+00  0.00000000E+00
  0.00000000E+00  0.00000000E+00  0.00000000E+00
  0.00000000E+00  0.00000000E+00  0.00000000E+00
  0.00000000E+00  0.00000000E+00  0.00000000E+00
  0.00000000E+00  0.00000000E+00  0.00000000E+00
  0.00000000E+00  0.00000000E+00  0.00000000E+00
  0.00000000E+00  0.00000000E+00  0.00000000E+00
  0.00000000E+00  0.00000000E+00  0.00000000E+00
  0.00000000E+00  0.00000000E+00  0.00000000E+00
  0.00000000E+00  0.00000000E+00  0.00000000E+00
  0.00000000E+00  0.00000000E+00  0.00000000E+00
  0.00000000E+00  0.00000000E+00  0.00000000E+00
  0.00000000E+00  0.00000000E+00  0.00000000E+00
  0.00000000E+00  0.00000000E+00  0.00000000E+00
  0.00000000E+00  0.00000000E+00  0.00000000E+00
  0.00000000E+00  0.00000000E+00  0.00000000E+00
  0.00000000E+00  0.00000000E+00  0.00000000E+00
  0.00000000E+00  0.00000000E+00  0.00000000E+00
  0.00000000E+00  0.00000000E+00  0.00000000E+00
  0.00000000E+00  0.00000000E+00  0.00000000E+00
