Ir64 O132
1.0
12.808532 0.000000 0.000000
0.000000 12.940486 0.000000
0.000000 0.000000 25.880972
Ir O
64 132
Selective dynamics
direct
0.125000 0.250000 0.187500 F F F Ir
0.375000 0.250000 0.187500 F F F Ir
0.125000 0.000000 0.062500 F F F Ir
0.375000 0.000000 0.062500 F F F Ir
0.000000 0.250000 0.062500 F F F Ir
0.250000 0.250000 0.062500 F F F Ir
0.000000 0.000000 0.187500 F F F Ir
0.250000 0.000000 0.187500 F F F Ir
0.125054 0.250137 0.438864 T T T Ir
0.374691 0.250104 0.438968 T T T Ir
0.126374 0.000002 0.312825 T T T Ir
0.373698 0.999992 0.312884 T T T Ir
0.000051 0.249928 0.313289 T T T Ir
0.250012 0.249965 0.313241 T T T Ir
0.999479 0.999992 0.434434 T T T Ir
0.249512 0.000066 0.443359 T T T Ir
0.625000 0.250000 0.187500 F F F Ir
0.875000 0.250000 0.187500 F F F Ir
0.625000 0.000000 0.062500 F F F Ir
0.875000 0.000000 0.062500 F F F Ir
0.500000 0.250000 0.062500 F F F Ir
0.750000 0.250000 0.062500 F F F Ir
0.500000 0.000000 0.187500 F F F Ir
0.750000 0.000000 0.187500 F F F Ir
0.624950 0.250527 0.439166 T T T Ir
0.874863 0.250573 0.439168 T T T Ir
0.626294 0.999958 0.312858 T T T Ir
0.873678 0.999958 0.312783 T T T Ir
0.499935 0.249887 0.313336 T T T Ir
0.749978 0.250266 0.313279 T T T Ir
0.499678 0.000002 0.434694 T T T Ir
0.749667 0.999945 0.442898 T T T Ir
0.125000 0.750000 0.187500 F F F Ir
0.375000 0.750000 0.187500 F F F Ir
0.125000 0.500000 0.062500 F F F Ir
0.375000 0.500000 0.062500 F F F Ir
0.000000 0.750000 0.062500 F F F Ir
0.250000 0.750000 0.062500 F F F Ir
0.000000 0.500000 0.187500 F F F Ir
0.250000 0.500000 0.187500 F F F Ir
0.125075 0.749937 0.438905 T T T Ir
0.374683 0.749951 0.439001 T T T Ir
0.126545 0.500043 0.312980 T T T Ir
0.373492 0.500041 0.312991 T T T Ir
0.000062 0.750145 0.313324 T T T Ir
0.250004 0.750075 0.313247 T T T Ir
0.999926 0.500014 0.435359 T T T Ir
0.249986 0.500030 0.443634 T T T Ir
0.625000 0.750000 0.187500 F F F Ir
0.875000 0.750000 0.187500 F F F Ir
0.625000 0.500000 0.062500 F F F Ir
0.875000 0.500000 0.062500 F F F Ir
0.500000 0.750000 0.062500 F F F Ir
0.750000 0.750000 0.062500 F F F Ir
0.500000 0.500000 0.187500 F F F Ir
0.750000 0.500000 0.187500 F F F Ir
0.624931 0.749422 0.439195 T T T Ir
0.874854 0.749371 0.439203 T T T Ir
0.624658 0.500044 0.312194 T T T Ir
0.875384 0.500053 0.312183 T T T Ir
0.499913 0.750141 0.313348 T T T Ir
0.749974 0.749770 0.313297 T T T Ir
0.500036 0.500006 0.435366 T T T Ir
0.749988 0.499974 0.435743 T T T Ir
0.000000 0.250000 0.139610 F F F O
0.250000 0.250000 0.139610 F F F O
0.000000 0.000000 0.014610 F F F O
0.250000 0.000000 0.014610 F F F O
0.125000 0.404220 0.187500 F F F O
0.375000 0.404220 0.187500 F F F O
0.125000 0.154220 0.062500 F F F O
0.375000 0.154220 0.062500 F F F O
0.000000 0.250000 0.235390 F F F O
0.250000 0.250000 0.235390 F F F O
0.000000 0.000000 0.110390 F F F O
0.250000 0.000000 0.110390 F F F O
0.125000 0.095780 0.187500 F F F O
0.375000 0.095780 0.187500 F F F O
0.125000 0.345780 0.062500 F F F O
0.375000 0.345780 0.062500 F F F O
0.999966 0.250217 0.390307 T T T O
0.249969 0.250117 0.390093 T T T O
0.000055 0.999982 0.264890 T T T O
0.250064 0.999951 0.264616 T T T O
0.124405 0.404505 0.439404 T T T O
0.375540 0.404495 0.439407 T T T O
0.125103 0.154109 0.313159 T T T O
0.374905 0.154096 0.313259 T T T O
0.000015 0.250058 0.484873 T T T O
0.249773 0.249870 0.484591 T T T O
0.000012 0.999996 0.359457 T T T O
0.250026 0.999918 0.361853 T T T O
0.124039 0.095531 0.438533 T T T O
0.375274 0.095467 0.439247 T T T O
0.125117 0.345750 0.313193 T T T O
0.374932 0.345743 0.313232 T T T O
0.500000 0.250000 0.139610 F F F O
0.750000 0.250000 0.139610 F F F O
0.500000 0.000000 0.014610 F F F O
0.750000 0.000000 0.014610 F F F O
0.625000 0.404220 0.187500 F F F O
0.875000 0.404220 0.187500 F F F O
0.625000 0.154220 0.062500 F F F O
0.875000 0.154220 0.062500 F F F O
0.500000 0.250000 0.235390 F F F O
0.750000 0.250000 0.235390 F F F O
0.500000 0.000000 0.110390 F F F O
0.750000 0.000000 0.110390 F F F O
0.625000 0.095780 0.187500 F F F O
0.875000 0.095780 0.187500 F F F O
0.625000 0.345780 0.062500 F F F O
0.875000 0.345780 0.062500 F F F O
0.499886 0.250033 0.390392 T T T O
0.749920 0.251364 0.390241 T T T O
0.499988 0.000018 0.264942 T T T O
0.749960 0.999835 0.264606 T T T O
0.625274 0.405204 0.440899 T T T O
0.874726 0.405207 0.440886 T T T O
0.625114 0.154266 0.313252 T T T O
0.874872 0.154310 0.313184 T T T O
0.499913 0.250143 0.484928 T T T O
0.749888 0.251481 0.484988 T T T O
0.499928 0.999995 0.359643 T T T O
0.749982 0.999574 0.361746 T T T O
0.624157 0.095669 0.438616 T T T O
0.875249 0.095738 0.438579 T T T O
0.624653 0.345823 0.313185 T T T O
0.875314 0.345842 0.313169 T T T O
0.749864 0.000028 0.512379 T T T O
0.000000 0.750000 0.139610 F F F O
0.250000 0.750000 0.139610 F F F O
0.000000 0.500000 0.014610 F F F O
0.250000 0.500000 0.014610 F F F O
0.125000 0.904220 0.187500 F F F O
0.375000 0.904220 0.187500 F F F O
0.125000 0.654220 0.062500 F F F O
0.375000 0.654220 0.062500 F F F O
0.000000 0.750000 0.235390 F F F O
0.250000 0.750000 0.235390 F F F O
0.000000 0.500000 0.110390 F F F O
0.250000 0.500000 0.110390 F F F O
0.125000 0.595780 0.187500 F F F O
0.375000 0.595780 0.187500 F F F O
0.125000 0.845780 0.062500 F F F O
0.375000 0.845780 0.062500 F F F O
0.999953 0.749912 0.390360 T T T O
0.249946 0.750056 0.390133 T T T O
0.000700 0.499996 0.264581 T T T O
0.250003 0.500153 0.264545 T T T O
0.124125 0.904560 0.438677 T T T O
0.375239 0.904595 0.439335 T T T O
0.125095 0.654312 0.313249 T T T O
0.374900 0.654303 0.313253 T T T O
0.000029 0.749937 0.484895 T T T O
0.249797 0.750100 0.484613 T T T O
0.000214 0.499990 0.359823 T T T O
0.250003 0.500014 0.361925 T T T O
0.124382 0.595574 0.439425 T T T O
0.375546 0.595563 0.439425 T T T O
0.125129 0.845922 0.313250 T T T O
0.374885 0.845909 0.313264 T T T O
0.500000 0.750000 0.139610 F F F O
0.750000 0.750000 0.139610 F F F O
0.500000 0.500000 0.014610 F F F O
0.750000 0.500000 0.014610 F F F O
0.625000 0.904220 0.187500 F F F O
0.875000 0.904220 0.187500 F F F O
0.625000 0.654220 0.062500 F F F O
0.875000 0.654220 0.062500 F F F O
0.500000 0.750000 0.235390 F F F O
0.750000 0.750000 0.235390 F F F O
0.500000 0.500000 0.110390 F F F O
0.750000 0.500000 0.110390 F F F O
0.625000 0.595780 0.187500 F F F O
0.875000 0.595780 0.187500 F F F O
0.625000 0.845780 0.062500 F F F O
0.875000 0.845780 0.062500 F F F O
0.499881 0.749993 0.390409 T T T O
0.749898 0.748638 0.390267 T T T O
0.499325 0.500007 0.264589 T T T O
0.750016 0.500230 0.264387 T T T O
0.624137 0.904266 0.438684 T T T O
0.875310 0.904202 0.438711 T T T O
0.624612 0.654241 0.313233 T T T O
0.875360 0.654246 0.313214 T T T O
0.499918 0.749872 0.484954 T T T O
0.749898 0.748175 0.485020 T T T O
0.499844 0.499959 0.359841 T T T O
0.750037 0.499971 0.359769 T T T O
0.625256 0.594764 0.440880 T T T O
0.874699 0.594741 0.440918 T T T O
0.625080 0.845705 0.313232 T T T O
0.874885 0.845691 0.313194 T T T O
0.248709 0.000534 0.512817 T T T O
0.250027 0.500035 0.513150 T T T O
0.125028 0.624986 0.529933 T T T O
