Ir  O Ir  O 
 1.0000000000000000
    12.8085319999999996    0.0000000000000000    0.0000000000000000
     0.0000000000000000    6.4702430000000000    0.0000000000000000
     0.0000000000000000    0.0000000000000000   25.8809719999999999
  16  34  16  34
Selective dynamics
Cartesian
  1.6010664999999999  3.2351215000000000  4.8526822500000000   F   F   F
  4.8031994999999998  3.2351215000000000  4.8526822500000000   F   F   F
  1.6010664999999999  0.0000000000000000  1.6175607500000000   F   F   F
  4.8031994999999998  0.0000000000000000  1.6175607500000000   F   F   F
  0.0000000000000000  3.2351215000000000  1.6175607500000000   F   F   F
  3.2021329999999999  3.2351215000000000  1.6175607500000000   F   F   F
  0.0000000000000000  0.0000000000000000  4.8526822500000000   F   F   F
  3.2021329999999999  0.0000000000000000  4.8526822500000000   F   F   F
  1.6010766192161419  3.2351215000000000 11.3382770362309770   T   T   T
  4.8049426974389178  3.2351215000000000 11.3472460341070231   T   T   T
  1.6005043332507278  0.0000000000000000  8.1022501874790684   T   T   T
  4.7942276155371539  0.0000000000000000  8.0917411125628931   T   T   T
  0.0018291328827917  3.2351215000000000  8.1003229550484352   T   T   T
  3.2006613679322657  3.2351215000000000  8.1001304948066384   T   T   T
 -0.0093368070244498  0.0000000000000000 11.4336265662887566   T   T   T
  3.2125414281285725  0.0000000000000000 11.4390466284304111   T   T   T
  0.0000000000000000  3.2351215000000000  3.6132425009199376   F   F   F
  3.2021329999999999  3.2351215000000000  3.6132425009199376   F   F   F
  0.0000000000000000  0.0000000000000000  0.3781210009199379   F   F   F
  3.2021329999999999  0.0000000000000000  0.3781210009199379   F   F   F
  1.6010664999999999  5.2308032509199833  4.8526822500000000   F   F   F
  4.8031994999999998  5.2308032509199833  4.8526822500000000   F   F   F
  1.6010664999999999  1.9956817509199831  1.6175607500000000   F   F   F
  4.8031994999999998  1.9956817509199831  1.6175607500000000   F   F   F
  0.0000000000000000  3.2351215000000000  6.0921219990800619   F   F   F
  3.2021329999999999  3.2351215000000000  6.0921219990800619   F   F   F
  0.0000000000000000  0.0000000000000000  2.8570004990800624   F   F   F
  3.2021329999999999  0.0000000000000000  2.8570004990800624   F   F   F
  1.6010664999999999  1.2394397490800166  4.8526822500000000   F   F   F
  4.8031994999999998  1.2394397490800166  4.8526822500000000   F   F   F
  1.6010664999999999  4.4745612490800166  1.6175607500000000   F   F   F
  4.8031994999999998  4.4745612490800166  1.6175607500000000   F   F   F
 -0.0013108458965156  3.2351215000000000 10.0862950484204585   T   T   T
  3.2048686124112669  3.2351215000000000 10.0868687177471905   T   T   T
  0.0055470307768469  0.0000000000000000  6.8532583105885347   T   T   T
  3.1957390532723431  0.0000000000000000  6.8523686073116714   T   T   T
  1.6010243547633602  5.2351385148775833 11.2901684085204455   T   T   T
  4.8242233229425509  5.2323259634138983 11.3470222980537052   T   T   T
  1.5992280230794265  1.9902352589528038  8.0957834092796688   T   T   T
  4.8006249302227753  1.9906037577082911  8.0854029043584141   T   T   T
  0.0000739579839480  3.2351215000000000 12.5200671408854269   T   T   T
  3.1999191890196297  3.2351215000000000 12.5205596339877268   T   T   T
 -0.0046389016199330  0.0000000000000000  9.3480666719437906   T   T   T
  3.2058944678006731  0.0000000000000000  9.3467634683922718   T   T   T
  1.6010243547633602  1.2351044851224167 11.2901684085204455   T   T   T
  4.8242233229425509  1.2379170365861007 11.3470222980537052   T   T   T
  1.5992280230794265  4.4800077410471957  8.0957834092796688   T   T   T
  4.8006249302227753  4.4796392422917091  8.0854029043584141   T   T   T
  3.1825302105893019  0.0000000000000000 13.2336971156434338   T   T   T
  0.0213679428381718  0.0000000000000000 13.2287723316027801   T   T   T
  8.0053324999999997  3.2351215000000000  4.8526822500000000   F   F   F
 11.2074654999999996  3.2351215000000000  4.8526822500000000   F   F   F
  8.0053324999999997  0.0000000000000000  1.6175607500000000   F   F   F
 11.2074654999999996  0.0000000000000000  1.6175607500000000   F   F   F
  6.4042659999999998  3.2351215000000000  1.6175607500000000   F   F   F
  9.6063989999999997  3.2351215000000000  1.6175607500000000   F   F   F
  6.4042659999999998  0.0000000000000000  4.8526822500000000   F   F   F
  9.6063989999999997  0.0000000000000000  4.8526822500000000   F   F   F
  8.0054222913488218  3.2351215000000000 11.3087000606620851   T   T   T
 11.2061271158694122  3.2351215000000000 11.3474017228262234   T   T   T
  8.0043634347741364  0.0000000000000000  8.0980844586916430   T   T   T
 11.2158716592597312  0.0000000000000000  8.0905732077189896   T   T   T
  6.4010900651567457  3.2351215000000000  8.0938164616879078   T   T   T
  9.6095820147889288  3.2351215000000000  8.0929584453095842   T   T   T
  6.4401802536086290  0.0000000000000000 11.3783539109236518   T   T   T
  9.5676046928530134  0.0000000000000000 11.3808469368082221   T   T   T
  6.4042659999999998  3.2351215000000000  3.6132425009199376   F   F   F
  9.6063989999999997  3.2351215000000000  3.6132425009199376   F   F   F
  6.4042659999999998  0.0000000000000000  0.3781210009199379   F   F   F
  9.6063989999999997  0.0000000000000000  0.3781210009199379   F   F   F
  8.0053324999999997  5.2308032509199833  4.8526822500000000   F   F   F
 11.2074654999999996  5.2308032509199833  4.8526822500000000   F   F   F
  8.0053324999999997  1.9956817509199831  1.6175607500000000   F   F   F
 11.2074654999999996  1.9956817509199831  1.6175607500000000   F   F   F
  6.4042659999999998  3.2351215000000000  6.0921219990800619   F   F   F
  9.6063989999999997  3.2351215000000000  6.0921219990800619   F   F   F
  6.4042659999999998  0.0000000000000000  2.8570004990800624   F   F   F
  9.6063989999999997  0.0000000000000000  2.8570004990800624   F   F   F
  8.0053324999999997  1.2394397490800166  4.8526822500000000   F   F   F
 11.2074654999999996  1.2394397490800166  4.8526822500000000   F   F   F
  8.0053324999999997  4.4745612490800166  1.6175607500000000   F   F   F
 11.2074654999999996  4.4745612490800166  1.6175607500000000   F   F   F
  6.3924708068778457  3.2351215000000000 10.0725409184388788   T   T   T
  9.6189322719069867  3.2351215000000000 10.0724165580841429   T   T   T
  6.4043804721174524  0.0000000000000000  6.8568258675552070   T   T   T
  9.6045535023902975  0.0000000000000000  6.8527094548983598   T   T   T
  8.0051779510892871  5.2154263852707663 11.1897397366086651   T   T   T
 11.1849255678034432  5.2321858220889794 11.3369847174043059   T   T   T
  8.0029886981976563  1.9920641625457116  8.0862311600624235   T   T   T
 11.2136813999766858  1.9908617857528557  8.0831305319485764   T   T   T
  6.4239208332866014  3.2351215000000000 12.5062387905547503   T   T   T
  9.5887796492800668  3.2351215000000000 12.5073166028747309   T   T   T
  6.3766190100671443  0.0000000000000000  9.3316256076731072   T   T   T
  9.6315379989340606  0.0000000000000000  9.3278652793972938   T   T   T
  8.0051779510892871  1.2548166147292341 11.1897397366086651   T   T   T
 11.1849255678034432  1.2380571779110210 11.3369847174043059   T   T   T
  8.0029886981976563  4.4781788374542888  8.0862311600624235   T   T   T
 11.2136813999766858  4.4793812142471428  8.0831305319485764   T   T   T
  9.1561342041229317  0.0000000000000000 13.2132174422281494   T   T   T
  6.8639888053544773  0.0000000000000000 13.2120824094859799   T   T   T
