Ir  O Ir  O 
 1.0000000000000000
    12.8085319999999996    0.0000000000000000    0.0000000000000000
     0.0000000000000000    6.4702430000000000    0.0000000000000000
     0.0000000000000000    0.0000000000000000   25.8809719999999999
Ir  O Ir  O
  14  30  14  30
Selective dynamics
Cartesian
  1.6010664999999999  3.2351215000000000  4.8526822500000000   F   F   F
  4.8031994999999998  3.2351215000000000  4.8526822500000000   F   F   F
  1.6010664999999999  0.0000000000000000  1.6175607500000000   F   F   F
  4.8031994999999998  0.0000000000000000  1.6175607500000000   F   F   F
  0.0000000000000000  3.2351215000000000  1.6175607500000000   F   F   F
  3.2021329999999999  3.2351215000000000  1.6175607500000000   F   F   F
  0.0000000000000000  0.0000000000000000  4.8526822500000000   F   F   F
  3.2021329999999999  0.0000000000000000  4.8526822500000000   F   F   F
  1.6010044466506896  0.0000000000000000  8.0779068041437245   T   T   T
  4.8031932159096495  0.0000000000000000  8.0779309779392037   T   T   T
 -0.0000018326307486  3.2351215000000000  8.1030165175481681   T   T   T
  3.2020939438545097  3.2351215000000000  8.1020173589533471   T   T   T
  0.0001613357753659  0.0000000000000000 11.2625324943790837   T   T   T
  3.2021115128392932  0.0000000000000000 11.2641492091900410   T   T   T
  0.0000000000000000  3.2351215000000000  3.6132425009199376   F   F   F
  3.2021329999999999  3.2351215000000000  3.6132425009199376   F   F   F
  0.0000000000000000  0.0000000000000000  0.3781210009199379   F   F   F
  3.2021329999999999  0.0000000000000000  0.3781210009199379   F   F   F
  1.6010664999999999  5.2308032509199833  4.8526822500000000   F   F   F
  4.8031994999999998  5.2308032509199833  4.8526822500000000   F   F   F
  1.6010664999999999  1.9956817509199831  1.6175607500000000   F   F   F
  4.8031994999999998  1.9956817509199831  1.6175607500000000   F   F   F
  0.0000000000000000  3.2351215000000000  6.0921219990800619   F   F   F
  3.2021329999999999  3.2351215000000000  6.0921219990800619   F   F   F
  0.0000000000000000  0.0000000000000000  2.8570004990800624   F   F   F
  3.2021329999999999  0.0000000000000000  2.8570004990800624   F   F   F
  1.6010664999999999  1.2394397490800166  4.8526822500000000   F   F   F
  4.8031994999999998  1.2394397490800166  4.8526822500000000   F   F   F
  1.6010664999999999  4.4745612490800166  1.6175607500000000   F   F   F
  4.8031994999999998  4.4745612490800166  1.6175607500000000   F   F   F
  0.0000419582001832  3.2351215000000000 10.0974944740477142   T   T   T
  3.2020242198036097  3.2351215000000000 10.0954696451455668   T   T   T
 -0.0001054428543643  0.0000000000000000  6.8370035981050146   T   T   T
  3.2021585131190200  0.0000000000000000  6.8368220234131840   T   T   T
  1.6022304215927226  5.2403146125838989 11.4041152417439147   T   T   T
  4.8023137178785591  5.2401350843752059 11.4040380208831973   T   T   T
  1.5988248784800172  1.9950615788910309  8.0963255375389203   T   T   T
  4.8053590259441759  1.9951835682369747  8.0960445019474818   T   T   T
 -0.0003824887869494  0.0000000000000000  9.3061132564787101   T   T   T
  3.2019081337954480  0.0000000000000000  9.3069340295913463   T   T   T
  1.6022304215927226  1.2299283874161013 11.4041152417439147   T   T   T
  4.8023137178785591  1.2301079156247936 11.4040380208831973   T   T   T
  1.5988248784800172  4.4751814211089682  8.0963255375389203   T   T   T
  4.8053590259441759  4.4750594317630252  8.0960445019474818   T   T   T
  8.0053324999999997  3.2351215000000000  4.8526822500000000   F   F   F
 11.2074654999999996  3.2351215000000000  4.8526822500000000   F   F   F
  8.0053324999999997  0.0000000000000000  1.6175607500000000   F   F   F
 11.2074654999999996  0.0000000000000000  1.6175607500000000   F   F   F
  6.4042659999999998  3.2351215000000000  1.6175607500000000   F   F   F
  9.6063989999999997  3.2351215000000000  1.6175607500000000   F   F   F
  6.4042659999999998  0.0000000000000000  4.8526822500000000   F   F   F
  9.6063989999999997  0.0000000000000000  4.8526822500000000   F   F   F
  8.0053333560148872  0.0000000000000000  8.0779515798223223   T   T   T
 11.2075933603595939  0.0000000000000000  8.0778937581712480   T   T   T
  6.4043726602425970  3.2351215000000000  8.1030577281011897   T   T   T
  9.6064914985083671  3.2351215000000000  8.1019571695550248   T   T   T
  6.4042667683417855  0.0000000000000000 11.2628113768793732   T   T   T
  9.6066017020636636  0.0000000000000000 11.2642260223416866   T   T   T
  6.4042659999999998  3.2351215000000000  3.6132425009199376   F   F   F
  9.6063989999999997  3.2351215000000000  3.6132425009199376   F   F   F
  6.4042659999999998  0.0000000000000000  0.3781210009199379   F   F   F
  9.6063989999999997  0.0000000000000000  0.3781210009199379   F   F   F
  8.0053324999999997  5.2308032509199833  4.8526822500000000   F   F   F
 11.2074654999999996  5.2308032509199833  4.8526822500000000   F   F   F
  8.0053324999999997  1.9956817509199831  1.6175607500000000   F   F   F
 11.2074654999999996  1.9956817509199831  1.6175607500000000   F   F   F
  6.4042659999999998  3.2351215000000000  6.0921219990800619   F   F   F
  9.6063989999999997  3.2351215000000000  6.0921219990800619   F   F   F
  6.4042659999999998  0.0000000000000000  2.8570004990800624   F   F   F
  9.6063989999999997  0.0000000000000000  2.8570004990800624   F   F   F
  8.0053324999999997  1.2394397490800166  4.8526822500000000   F   F   F
 11.2074654999999996  1.2394397490800166  4.8526822500000000   F   F   F
  8.0053324999999997  4.4745612490800166  1.6175607500000000   F   F   F
 11.2074654999999996  4.4745612490800166  1.6175607500000000   F   F   F
  6.4042368003559513  3.2351215000000000 10.0975168750533708   T   T   T
  9.6065267061690971  3.2351215000000000 10.0956720376559890   T   T   T
  6.4043502194395998  0.0000000000000000  6.8372453443198387   T   T   T
  9.6063694781683946  0.0000000000000000  6.8369818330029188   T   T   T
  8.0062469648115133  5.2401717299439650 11.4037275258104316   T   T   T
 11.2064462900034929  5.2401954559561297 11.4037583644577261   T   T   T
  8.0031847908288842  1.9951010125276938  8.0966242596259015   T   T   T
 11.2097365378778129  1.9950920572925115  8.0965689911040233   T   T   T
  6.4046423794973002  0.0000000000000000  9.3060927863732044   T   T   T
  9.6059886172130362  0.0000000000000000  9.3085341285776995   T   T   T
  8.0062469648115133  1.2300712700560348 11.4037275258104316   T   T   T
 11.2064462900034929  1.2300475440438703 11.4037583644577261   T   T   T
  8.0031847908288842  4.4751419874723055  8.0966242596259015   T   T   T
 11.2097365378778129  4.4751509427074874  8.0965689911040233   T   T   T
