Ir  O Ir  O 
 1.0000000000000000
    12.8085319999999996    0.0000000000000000    0.0000000000000000
     0.0000000000000000    6.4702430000000000    0.0000000000000000
     0.0000000000000000    0.0000000000000000   25.8809719999999999
Ir  O Ir  O
  14  30  14  31
Selective dynamics
Cartesian
  1.6010664999999999  3.2351215000000000  4.8526822500000000   F   F   F
  4.8031994999999998  3.2351215000000000  4.8526822500000000   F   F   F
  1.6010664999999999  0.0000000000000000  1.6175607500000000   F   F   F
  4.8031994999999998  0.0000000000000000  1.6175607500000000   F   F   F
  0.0000000000000000  3.2351215000000000  1.6175607500000000   F   F   F
  3.2021329999999999  3.2351215000000000  1.6175607500000000   F   F   F
  0.0000000000000000  0.0000000000000000  4.8526822500000000   F   F   F
  3.2021329999999999  0.0000000000000000  4.8526822500000000   F   F   F
  1.5935122983599284  0.0000000000000000  8.0848215446221641   T   T   T
  4.8132883910696789  0.0000000000000000  8.0781095682816879   T   T   T
  0.0303397856346276  3.2351215000000000  8.1130402284654632   T   T   T
  3.1758692893585292  3.2351215000000000  8.1022877796299433   T   T   T
 -0.1209129824842440  0.0000000000000000 11.2874413233654209   T   T   T
  3.3426875405405121  0.0000000000000000 11.2710780925049381   T   T   T
  0.0000000000000000  3.2351215000000000  3.6132425009199376   F   F   F
  3.2021329999999999  3.2351215000000000  3.6132425009199376   F   F   F
  0.0000000000000000  0.0000000000000000  0.3781210009199379   F   F   F
  3.2021329999999999  0.0000000000000000  0.3781210009199379   F   F   F
  1.6010664999999999  5.2308032509199833  4.8526822500000000   F   F   F
  4.8031994999999998  5.2308032509199833  4.8526822500000000   F   F   F
  1.6010664999999999  1.9956817509199831  1.6175607500000000   F   F   F
  4.8031994999999998  1.9956817509199831  1.6175607500000000   F   F   F
  0.0000000000000000  3.2351215000000000  6.0921219990800619   F   F   F
  3.2021329999999999  3.2351215000000000  6.0921219990800619   F   F   F
  0.0000000000000000  0.0000000000000000  2.8570004990800624   F   F   F
  3.2021329999999999  0.0000000000000000  2.8570004990800624   F   F   F
  1.6010664999999999  1.2394397490800166  4.8526822500000000   F   F   F
  4.8031994999999998  1.2394397490800166  4.8526822500000000   F   F   F
  1.6010664999999999  4.4745612490800166  1.6175607500000000   F   F   F
  4.8031994999999998  4.4745612490800166  1.6175607500000000   F   F   F
  0.1842976980834153  3.2351215000000000  9.9948850047766999   T   T   T
  3.0168380586815111  3.2351215000000000  9.9921457087248253   T   T   T
 12.7976121983151163  0.0000000000000000  6.8552555675299898   T   T   T
  3.2027530918691047  0.0000000000000000  6.8458844431374066   T   T   T
  1.6320532473983709  5.2785742810548539 11.4221882849320089   T   T   T
  4.8927942056281264  5.3127330410807225 11.4473206225676272   T   T   T
  1.5986587386037729  1.9924053869285403  8.0118903222143114   T   T   T
  4.7983126012180488  2.0016559658095048  8.0793833132080426   T   T   T
 -0.0170513517513220  0.0000000000000000  9.3382504240706403   T   T   T
  3.2165609504498791  0.0000000000000000  9.3207672775770654   T   T   T
  1.6320532473983709  1.1916687189451487 11.4221882849320089   T   T   T
  4.8927942056281264  1.1575099589192304 11.4473206225676272   T   T   T
  1.5986587386037729  4.4778376130714594  8.0118903222143114   T   T   T
  4.7983126012180488  4.4685870341904943  8.0793833132080426   T   T   T
  8.0053324999999997  3.2351215000000000  4.8526822500000000   F   F   F
 11.2074654999999996  3.2351215000000000  4.8526822500000000   F   F   F
  8.0053324999999997  0.0000000000000000  1.6175607500000000   F   F   F
 11.2074654999999996  0.0000000000000000  1.6175607500000000   F   F   F
  6.4042659999999998  3.2351215000000000  1.6175607500000000   F   F   F
  9.6063989999999997  3.2351215000000000  1.6175607500000000   F   F   F
  6.4042659999999998  0.0000000000000000  4.8526822500000000   F   F   F
  9.6063989999999997  0.0000000000000000  4.8526822500000000   F   F   F
  8.0369366076657531  0.0000000000000000  8.0978962415242624   T   T   T
 11.1773048378994044  0.0000000000000000  8.1113711003445470   T   T   T
  6.4006164852916445  3.2351215000000000  8.1676164135830778   T   T   T
  9.6156633772714812  3.2351215000000000  8.1777240446252435   T   T   T
  6.5096993520839215  0.0000000000000000 11.2781215736145004   T   T   T
  9.6125843518841503  0.0000000000000000 11.9035462431103767   T   T   T
  6.4042659999999998  3.2351215000000000  3.6132425009199376   F   F   F
  9.6063989999999997  3.2351215000000000  3.6132425009199376   F   F   F
  6.4042659999999998  0.0000000000000000  0.3781210009199379   F   F   F
  9.6063989999999997  0.0000000000000000  0.3781210009199379   F   F   F
  8.0053324999999997  5.2308032509199833  4.8526822500000000   F   F   F
 11.2074654999999996  5.2308032509199833  4.8526822500000000   F   F   F
  8.0053324999999997  1.9956817509199831  1.6175607500000000   F   F   F
 11.2074654999999996  1.9956817509199831  1.6175607500000000   F   F   F
  6.4042659999999998  3.2351215000000000  6.0921219990800619   F   F   F
  9.6063989999999997  3.2351215000000000  6.0921219990800619   F   F   F
  6.4042659999999998  0.0000000000000000  2.8570004990800624   F   F   F
  9.6063989999999997  0.0000000000000000  2.8570004990800624   F   F   F
  8.0053324999999997  1.2394397490800166  4.8526822500000000   F   F   F
 11.2074654999999996  1.2394397490800166  4.8526822500000000   F   F   F
  8.0053324999999997  4.4745612490800166  1.6175607500000000   F   F   F
 11.2074654999999996  4.4745612490800166  1.6175607500000000   F   F   F
  6.4433633888381507  3.2351215000000000  9.9594189048150454   T   T   T
  9.5644914072674165  3.2351215000000000  9.9656201878376933   T   T   T
  6.4151050546735382  0.0000000000000000  6.8524537899632474   T   T   T
  9.6113981557828971  0.0000000000000000  6.8438389769499519   T   T   T
  8.0759240731913327  5.2849719909583053 11.5102342524007053   T   T   T
 11.1317799904773000  5.2903734887341507 11.4763143482691667   T   T   T
  8.0140429086936962  2.0004459213694710  8.0317822703355972   T   T   T
 11.2191213896231634  1.9986006370374392  8.0996159694624463   T   T   T
  6.4172340973308186  0.0000000000000000  9.3250764907451327   T   T   T
  9.6003883897284510  0.0000000000000000  9.3255142094367045   T   T   T
  8.0759240731913327  1.1852710090416945 11.5102342524007053   T   T   T
 11.1317799904773000  1.1798695112658522 11.4763143482691667   T   T   T
  8.0140429086936962  4.4697970786305312  8.0317822703355972   T   T   T
 11.2191213896231634  4.4716423629625588  8.0996159694624463   T   T   T
  9.6215034833135871  0.0000000000000000 13.6480653108226644   T   T   T
