Ir  O Ir  O 
 1.0000000000000000
    12.8085319999999996    0.0000000000000000    0.0000000000000000
     0.0000000000000000    6.4702430000000000    0.0000000000000000
     0.0000000000000000    0.0000000000000000   25.8809719999999999
  16  34  16  34
Selective dynamics
Cartesian
  1.6010664999999999  3.2351215000000000  4.8526822500000000   F   F   F
  4.8031994999999998  3.2351215000000000  4.8526822500000000   F   F   F
  1.6010664999999999  0.0000000000000000  1.6175607500000000   F   F   F
  4.8031994999999998  0.0000000000000000  1.6175607500000000   F   F   F
  0.0000000000000000  3.2351215000000000  1.6175607500000000   F   F   F
  3.2021329999999999  3.2351215000000000  1.6175607500000000   F   F   F
  0.0000000000000000  0.0000000000000000  4.8526822500000000   F   F   F
  3.2021329999999999  0.0000000000000000  4.8526822500000000   F   F   F
  1.5995053558054964  3.2471381455988189 11.3360076480999883   T   T   T
  4.8008377946122609  3.2455701361246820 11.3535390582067048   T   T   T
  1.5992730895892637  0.0011697105957986  8.1074350873657064   T   T   T
  4.7842274404247078  0.0024497049904684  8.0890927679779079   T   T   T
  0.0022331496763601  3.2365893255388150  8.0995086670855478   T   T   T
  3.1998783184450663  3.2374849349663779  8.1001931101409053   T   T   T
 -0.0139851007603679  0.0125904877338974 11.4508194316130325   T   T   T
  3.2101612740920662  0.0111936043887198 11.4507590572542792   T   T   T
  0.0000000000000000  3.2351215000000000  3.6132425009199376   F   F   F
  3.2021329999999999  3.2351215000000000  3.6132425009199376   F   F   F
  0.0000000000000000  0.0000000000000000  0.3781210009199379   F   F   F
  3.2021329999999999  0.0000000000000000  0.3781210009199379   F   F   F
  1.6010664999999999  5.2308032509199833  4.8526822500000000   F   F   F
  4.8031994999999998  5.2308032509199833  4.8526822500000000   F   F   F
  1.6010664999999999  1.9956817509199831  1.6175607500000000   F   F   F
  4.8031994999999998  1.9956817509199831  1.6175607500000000   F   F   F
  0.0000000000000000  3.2351215000000000  6.0921219990800619   F   F   F
  3.2021329999999999  3.2351215000000000  6.0921219990800619   F   F   F
  0.0000000000000000  0.0000000000000000  2.8570004990800624   F   F   F
  3.2021329999999999  0.0000000000000000  2.8570004990800624   F   F   F
  1.6010664999999999  1.2394397490800166  4.8526822500000000   F   F   F
  4.8031994999999998  1.2394397490800166  4.8526822500000000   F   F   F
  1.6010664999999999  4.4745612490800166  1.6175607500000000   F   F   F
  4.8031994999999998  4.4745612490800166  1.6175607500000000   F   F   F
 -0.0012530582890261  3.2456388539545231 10.0855462341234237   T   T   T
  3.2048468173101239  3.2435920865260104 10.0864379361746188   T   T   T
  0.0070448398966687  0.0006742070194458  6.8534965830231576   T   T   T
  3.1927652939752309  0.0020431009798931  6.8516270810432731   T   T   T
  1.5969699722350130  5.2478804084772825 11.3006924410517193   T   T   T
  4.8290306348515575  5.2430606616955142 11.3851756283258077   T   T   T
  1.5983933322457622  1.9917663027923920  8.0991337419650939   T   T   T
  4.7981170992227788  1.9947794210916976  8.0885881623894367   T   T   T
  0.0052298609744081  3.2468727812007749 12.5197357848298445   T   T   T
  3.1930437566916532  3.2450923055520398 12.5226417886127770   T   T   T
 -0.0075658708481370 -0.0019446407484379  9.3529791033158247   T   T   T
  3.2075261705527445  0.0000004078782680  9.3564594247991248   T   T   T
  1.5976389387773569  1.2459474263383425 11.2836225561503518   T   T   T
  4.8283342806128475  1.2491353711768636 11.3779957334915061   T   T   T
  1.5990455074349605  4.4816862094502525  8.0952847227012938   T   T   T
  4.7982877014060312  4.4805364470316604  8.0835248593450579   T   T   T
  3.1680256492193788  0.0202860126353786 13.2465252098290520   T   T   T
  0.0374368023673469  0.0306510473339085 13.2458567369327866   T   T   T
  8.0053324999999997  3.2351215000000000  4.8526822500000000   F   F   F
 11.2074654999999996  3.2351215000000000  4.8526822500000000   F   F   F
  8.0053324999999997  0.0000000000000000  1.6175607500000000   F   F   F
 11.2074654999999996  0.0000000000000000  1.6175607500000000   F   F   F
  6.4042659999999998  3.2351215000000000  1.6175607500000000   F   F   F
  9.6063989999999997  3.2351215000000000  1.6175607500000000   F   F   F
  6.4042659999999998  0.0000000000000000  4.8526822500000000   F   F   F
  9.6063989999999997  0.0000000000000000  4.8526822500000000   F   F   F
  8.0017565151428034  3.2478618883884347 11.3171508954580418   T   T   T
 11.2069775391043223  3.2499829563558675 11.3529712929921214   T   T   T
  8.0121100300180004  0.0020942886879061  8.0916230222702001   T   T   T
 11.2198324374037277 -0.0001275233953223  8.0901442127872496   T   T   T
  6.4006052501328918  3.2376289112624224  8.0951865374588827   T   T   T
  9.6108617369590608  3.2373310998709712  8.0958478217858865   T   T   T
  6.4380056749140202  0.0131517858553593 11.2943787925533528   T   T   T
  9.5650349608650878  0.0155925072938138 11.3394346937657744   T   T   T
  6.4042659999999998  3.2351215000000000  3.6132425009199376   F   F   F
  9.6063989999999997  3.2351215000000000  3.6132425009199376   F   F   F
  6.4042659999999998  0.0000000000000000  0.3781210009199379   F   F   F
  9.6063989999999997  0.0000000000000000  0.3781210009199379   F   F   F
  8.0053324999999997  5.2308032509199833  4.8526822500000000   F   F   F
 11.2074654999999996  5.2308032509199833  4.8526822500000000   F   F   F
  8.0053324999999997  1.9956817509199831  1.6175607500000000   F   F   F
 11.2074654999999996  1.9956817509199831  1.6175607500000000   F   F   F
  6.4042659999999998  3.2351215000000000  6.0921219990800619   F   F   F
  9.6063989999999997  3.2351215000000000  6.0921219990800619   F   F   F
  6.4042659999999998  0.0000000000000000  2.8570004990800624   F   F   F
  9.6063989999999997  0.0000000000000000  2.8570004990800624   F   F   F
  8.0053324999999997  1.2394397490800166  4.8526822500000000   F   F   F
 11.2074654999999996  1.2394397490800166  4.8526822500000000   F   F   F
  8.0053324999999997  4.4745612490800166  1.6175607500000000   F   F   F
 11.2074654999999996  4.4745612490800166  1.6175607500000000   F   F   F
  6.3893058593633905  3.2415540616180922 10.0777095302626662   T   T   T
  9.6195049990554473  3.2486459037613735 10.0794794149610247   T   T   T
  6.4032908559808002  0.0023167778897297  6.8524707387611477   T   T   T
  9.6066443201034666  0.0024487498222738  6.8494179041224141   T   T   T
  7.9958868225153061  5.2255650895065493 11.2305080914618234   T   T   T
 11.1839750699437754  5.2441277887477336 11.3829448586443895   T   T   T
  8.0048601778480997  1.9966534935957951  8.0928997820198614   T   T   T
 11.2143785322330007  1.9925011625908879  8.0854903423886118   T   T   T
  6.4144422698912429  3.2441898357466208 12.5187417427662151   T   T   T
  9.5902573303148202  3.2343927330038902 12.5177047016301621   T   T   T
  6.3775733748652987 -0.0047642322880179  9.3109908831066850   T   T   T
  9.6343780169840745 -0.0036441407369971  9.3200638167634224   T   T   T
  7.9902194861827134  1.2727232969412718 11.2278452507640072   T   T   T
 11.1868171789665833  1.2536904224794267 11.3584357071404707   T   T   T
  8.0042971630099071  4.4783284300690562  8.0863854317768649   T   T   T
 11.2147848989294232  4.4791398298908573  8.0812560551928101   T   T   T
  9.2684456261165060  0.2503628761625131 13.2036770641683905   T   T   T
  8.3914087263637782 -0.5742895711511855 13.8301194004608927   T   T   T
