Ir  O Ir  O                             
   1.00000000000000     
    12.8085319999999996    0.0000000000000000    0.0000000000000000
     0.0000000000000000    6.4702430000000000    0.0000000000000000
     0.0000000000000000    0.0000000000000000   25.8809719999999999
   Ir   O    Ir   O 
    16    32    16    34
Selective dynamics
Direct
  0.1250000000000000  0.5000000000000000  0.1875000000000000   F   F   F
  0.3750000000000000  0.5000000000000000  0.1875000000000000   F   F   F
  0.1250000000000000  0.0000000000000000  0.0625000000000000   F   F   F
  0.3750000000000000  0.0000000000000000  0.0625000000000000   F   F   F
  0.0000000000000000  0.5000000000000000  0.0625000000000000   F   F   F
  0.2500000000000000  0.5000000000000000  0.0625000000000000   F   F   F
  0.0000000000000000  0.0000000000000000  0.1875000000000000   F   F   F
  0.2500000000000000  0.0000000000000000  0.1875000000000000   F   F   F
  0.1248456517482808  0.4998495808935672  0.4394188544241260   F   F   F
  0.3752289041714434  0.4996975584780898  0.4397309081231313   F   F   F
  0.1247807953139386  0.0002173295182146  0.3120073071680807   F   F   F
  0.3753571184688695  0.0002896265220684  0.3123427029146910   F   F   F
  0.9998545652495920  0.5001908650698113  0.3133855117729851   F   F   F
  0.2498185260011283  0.5001961688224767  0.3133902768931520   F   F   F
  0.9978756331393939  0.9997808498161689  0.4352858465350096   F   F   F
  0.2519760630759365  0.9998494808177014  0.4355022362231011   F   F   F
  0.0000000000000000  0.5000000000000000  0.1396099999999976   F   F   F
  0.2500000000000000  0.5000000000000000  0.1396099999999976   F   F   F
  0.0000000000000000  0.0000000000000000  0.0146099999999976   F   F   F
  0.2500000000000000  0.0000000000000000  0.0146099999999976   F   F   F
  0.1250000000000000  0.8084399999999974  0.1875000000000000   F   F   F
  0.3750000000000000  0.8084399999999974  0.1875000000000000   F   F   F
  0.1250000000000000  0.3084399999999974  0.0625000000000000   F   F   F
  0.3750000000000000  0.3084399999999974  0.0625000000000000   F   F   F
  0.0000000000000000  0.5000000000000000  0.2353900000000024   F   F   F
  0.2500000000000000  0.5000000000000000  0.2353900000000024   F   F   F
  0.0000000000000000  0.0000000000000000  0.1103900000000024   F   F   F
  0.2500000000000000  0.0000000000000000  0.1103900000000024   F   F   F
  0.1250000000000000  0.1915600000000026  0.1875000000000000   F   F   F
  0.3750000000000000  0.1915600000000026  0.1875000000000000   F   F   F
  0.1250000000000000  0.6915600000000026  0.0625000000000000   F   F   F
  0.3750000000000000  0.6915600000000026  0.0625000000000000   F   F   F
  0.9995548419673597  0.4999972966816983  0.3906340868503833   F   F   F
  0.2502321865234123  0.4998387393872790  0.3905845518331503   F   F   F
  0.9999094527885930  0.0005047728470657  0.2642131569544333   F   F   F
  0.2497813066210028  0.0005175900744376  0.2642583928020983   F   F   F
  0.1248828515080476  0.8107364728889124  0.4403987802860101   F   F   F
  0.3765268404030593  0.8102479522684689  0.4431291842205027   F   F   F
  0.1246832302073670  0.3085162433485564  0.3132341470212054   F   F   F
  0.3748285462203640  0.3084770389777418  0.3127588460741180   F   F   F
  0.9995670558220979  0.4999693130443106  0.4852779194670660   F   F   F
  0.2499984915680784  0.4991281227210536  0.4854629129269057   F   F   F
  0.9998915426247237  0.0000161445614850  0.3595392435312377   F   F   F
  0.2496679051598463  0.0001014772593209  0.3596962686928222   F   F   F
  0.1248596358247411  0.1890294047113557  0.4404107326949500   F   F   F
  0.3766126556908205  0.1891531330963403  0.4432240862811554   F   F   F
  0.1246880991610411  0.6918229450004461  0.3131810781972391   F   F   F
  0.3748295005116020  0.6920896831053014  0.3127413103049221   F   F   F
  0.6250000000000000  0.5000000000000000  0.1875000000000000   F   F   F
  0.8750000000000000  0.5000000000000000  0.1875000000000000   F   F   F
  0.6250000000000000  0.0000000000000000  0.0625000000000000   F   F   F
  0.8750000000000000  0.0000000000000000  0.0625000000000000   F   F   F
  0.5000000000000000  0.5000000000000000  0.0625000000000000   F   F   F
  0.7500000000000000  0.5000000000000000  0.0625000000000000   F   F   F
  0.5000000000000000  0.0000000000000000  0.1875000000000000   F   F   F
  0.7500000000000000  0.0000000000000000  0.1875000000000000   F   F   F
  0.6247143913978164  0.4997101662679242  0.4363775237798961   F   F   F
  0.8743461313439340  0.4996373622824564  0.4395273583916932   F   F   F
  0.6245729098531783  0.0001657228775613  0.3134841571810156   F   F   F
  0.8740958385887794  0.0001956140780024  0.3122216942127309   F   F   F
  0.4995749496292490  0.5002142386865387  0.3128147335347080   F   F   F
  0.7499656403327535  0.5001011212761242  0.3127626289704324   F   F   F
  0.5053637038098984  0.9995525896955400  0.4407609457508315   F   F   F
  0.7443486389920082  0.9995900989563751  0.4404386024246847   F   F   F
  0.5000000000000000  0.5000000000000000  0.1396099999999976   F   F   F
  0.7500000000000000  0.5000000000000000  0.1396099999999976   F   F   F
  0.5000000000000000  0.0000000000000000  0.0146099999999976   F   F   F
  0.7500000000000000  0.0000000000000000  0.0146099999999976   F   F   F
  0.6250000000000000  0.8084399999999974  0.1875000000000000   F   F   F
  0.8750000000000000  0.8084399999999974  0.1875000000000000   F   F   F
  0.6250000000000000  0.3084399999999974  0.0625000000000000   F   F   F
  0.8750000000000000  0.3084399999999974  0.0625000000000000   F   F   F
  0.5000000000000000  0.5000000000000000  0.2353900000000024   F   F   F
  0.7500000000000000  0.5000000000000000  0.2353900000000024   F   F   F
  0.5000000000000000  0.0000000000000000  0.1103900000000024   F   F   F
  0.7500000000000000  0.0000000000000000  0.1103900000000024   F   F   F
  0.6250000000000000  0.1915600000000026  0.1875000000000000   F   F   F
  0.8750000000000000  0.1915600000000026  0.1875000000000000   F   F   F
  0.6250000000000000  0.6915600000000026  0.0625000000000000   F   F   F
  0.8750000000000000  0.6915600000000026  0.0625000000000000   F   F   F
  0.4979889696459523  0.4998691734540017  0.3892790765803937   F   F   F
  0.7511734196582083  0.4993378795308061  0.3892263717171289   F   F   F
  0.5001719193072560  0.0000696728150231  0.2649036374060501   F   F   F
  0.7491608804934700  0.0000392141065788  0.2648430251720839   F   F   F
  0.6247343470048747  0.8052538087856220  0.4277135201984947   F   F   F
  0.8731143849222391  0.8100405219796301  0.4424283765063635   F   F   F
  0.6245753754763896  0.3081490010008849  0.3123735136718366   F   F   F
  0.8750270955356569  0.3083839653439355  0.3126235978165042   F   F   F
  0.5029264305509500  0.4998259911789589  0.4834793465015039   F   F   F
  0.7467172035442218  0.4998809261008716  0.4833694255546206   F   F   F
  0.4955431115261462  0.0003431593870715  0.3609920983426065   F   F   F
  0.7535270094867670  0.0004007180182555  0.3607912259828865   F   F   F
  0.6247427190920902  0.1942589612178409  0.4280888665081903   F   F   F
  0.8731526017915812  0.1892946057605442  0.4426423459707394   F   F   F
  0.6245904579818458  0.6921522300744911  0.3125645292339456   F   F   F
  0.8749901725618656  0.6920256635274100  0.3127298689663434   F   F   F
  0.6920536359041165  0.9978041593660052  0.5086511314838802   T   T   T
  0.5581927943403427  0.9976053179891478  0.5083197854398758   T   T   T
 
  0.00000000E+00  0.00000000E+00  0.00000000E+00
  0.00000000E+00  0.00000000E+00  0.00000000E+00
  0.00000000E+00  0.00000000E+00  0.00000000E+00
  0.00000000E+00  0.00000000E+00  0.00000000E+00
  0.00000000E+00  0.00000000E+00  0.00000000E+00
  0.00000000E+00  0.00000000E+00  0.00000000E+00
  0.00000000E+00  0.00000000E+00  0.00000000E+00
  0.00000000E+00  0.00000000E+00  0.00000000E+00
  0.00000000E+00  0.00000000E+00  0.00000000E+00
  0.00000000E+00  0.00000000E+00  0.00000000E+00
  0.00000000E+00  0.00000000E+00  0.00000000E+00
  0.00000000E+00  0.00000000E+00  0.00000000E+00
  0.00000000E+00  0.00000000E+00  0.00000000E+00
  0.00000000E+00  0.00000000E+00  0.00000000E+00
  0.00000000E+00  0.00000000E+00  0.00000000E+00
  0.00000000E+00  0.00000000E+00  0.00000000E+00
  0.00000000E+00  0.00000000E+00  0.00000000E+00
  0.00000000E+00  0.00000000E+00  0.00000000E+00
  0.00000000E+00  0.00000000E+00  0.00000000E+00
  0.00000000E+00  0.00000000E+00  0.00000000E+00
  0.00000000E+00  0.00000000E+00  0.00000000E+00
  0.00000000E+00  0.00000000E+00  0.00000000E+00
  0.00000000E+00  0.00000000E+00  0.00000000E+00
  0.00000000E+00  0.00000000E+00  0.00000000E+00
  0.00000000E+00  0.00000000E+00  0.00000000E+00
  0.00000000E+00  0.00000000E+00  0.00000000E+00
  0.00000000E+00  0.00000000E+00  0.00000000E+00
  0.00000000E+00  0.00000000E+00  0.00000000E+00
  0.00000000E+00  0.00000000E+00  0.00000000E+00
  0.00000000E+00  0.00000000E+00  0.00000000E+00
  0.00000000E+00  0.00000000E+00  0.00000000E+00
  0.00000000E+00  0.00000000E+00  0.00000000E+00
  0.00000000E+00  0.00000000E+00  0.00000000E+00
  0.00000000E+00  0.00000000E+00  0.00000000E+00
  0.00000000E+00  0.00000000E+00  0.00000000E+00
  0.00000000E+00  0.00000000E+00  0.00000000E+00
  0.00000000E+00  0.00000000E+00  0.00000000E+00
  0.00000000E+00  0.00000000E+00  0.00000000E+00
  0.00000000E+00  0.00000000E+00  0.00000000E+00
  0.00000000E+00  0.00000000E+00  0.00000000E+00
  0.00000000E+00  0.00000000E+00  0.00000000E+00
  0.00000000E+00  0.00000000E+00  0.00000000E+00
  0.00000000E+00  0.00000000E+00  0.00000000E+00
  0.00000000E+00  0.00000000E+00  0.00000000E+00
  0.00000000E+00  0.00000000E+00  0.00000000E+00
  0.00000000E+00  0.00000000E+00  0.00000000E+00
  0.00000000E+00  0.00000000E+00  0.00000000E+00
  0.00000000E+00  0.00000000E+00  0.00000000E+00
  0.00000000E+00  0.00000000E+00  0.00000000E+00
  0.00000000E+00  0.00000000E+00  0.00000000E+00
  0.00000000E+00  0.00000000E+00  0.00000000E+00
  0.00000000E+00  0.00000000E+00  0.00000000E+00
  0.00000000E+00  0.00000000E+00  0.00000000E+00
  0.00000000E+00  0.00000000E+00  0.00000000E+00
  0.00000000E+00  0.00000000E+00  0.00000000E+00
  0.00000000E+00  0.00000000E+00  0.00000000E+00
  0.00000000E+00  0.00000000E+00  0.00000000E+00
  0.00000000E+00  0.00000000E+00  0.00000000E+00
  0.00000000E+00  0.00000000E+00  0.00000000E+00
  0.00000000E+00  0.00000000E+00  0.00000000E+00
  0.00000000E+00  0.00000000E+00  0.00000000E+00
  0.00000000E+00  0.00000000E+00  0.00000000E+00
  0.00000000E+00  0.00000000E+00  0.00000000E+00
  0.00000000E+00  0.00000000E+00  0.00000000E+00
  0.00000000E+00  0.00000000E+00  0.00000000E+00
  0.00000000E+00  0.00000000E+00  0.00000000E+00
  0.00000000E+00  0.00000000E+00  0.00000000E+00
  0.00000000E+00  0.00000000E+00  0.00000000E+00
  0.00000000E+00  0.00000000E+00  0.00000000E+00
  0.00000000E+00  0.00000000E+00  0.00000000E+00
  0.00000000E+00  0.00000000E+00  0.00000000E+00
  0.00000000E+00  0.00000000E+00  0.00000000E+00
  0.00000000E+00  0.00000000E+00  0.00000000E+00
  0.00000000E+00  0.00000000E+00  0.00000000E+00
  0.00000000E+00  0.00000000E+00  0.00000000E+00
  0.00000000E+00  0.00000000E+00  0.00000000E+00
  0.00000000E+00  0.00000000E+00  0.00000000E+00
  0.00000000E+00  0.00000000E+00  0.00000000E+00
  0.00000000E+00  0.00000000E+00  0.00000000E+00
  0.00000000E+00  0.00000000E+00  0.00000000E+00
  0.00000000E+00  0.00000000E+00  0.00000000E+00
  0.00000000E+00  0.00000000E+00  0.00000000E+00
  0.00000000E+00  0.00000000E+00  0.00000000E+00
  0.00000000E+00  0.00000000E+00  0.00000000E+00
  0.00000000E+00  0.00000000E+00  0.00000000E+00
  0.00000000E+00  0.00000000E+00  0.00000000E+00
  0.00000000E+00  0.00000000E+00  0.00000000E+00
  0.00000000E+00  0.00000000E+00  0.00000000E+00
  0.00000000E+00  0.00000000E+00  0.00000000E+00
  0.00000000E+00  0.00000000E+00  0.00000000E+00
  0.00000000E+00  0.00000000E+00  0.00000000E+00
  0.00000000E+00  0.00000000E+00  0.00000000E+00
  0.00000000E+00  0.00000000E+00  0.00000000E+00
  0.00000000E+00  0.00000000E+00  0.00000000E+00
  0.00000000E+00  0.00000000E+00  0.00000000E+00
  0.00000000E+00  0.00000000E+00  0.00000000E+00
  0.00000000E+00  0.00000000E+00  0.00000000E+00
  0.00000000E+00  0.00000000E+00  0.00000000E+00
