Ir  O Ir  O 
 1.0000000000000000
    12.8085319999999996    0.0000000000000000    0.0000000000000000
     0.0000000000000000    6.4702430000000000    0.0000000000000000
     0.0000000000000000    0.0000000000000000   25.8809719999999999
   Ir  O Ir  O
  16  32  16  34
Selective dynamics
Cartesian
  1.6010664999999999  3.2351215000000000  4.8526822500000000   F   F   F
  4.8031994999999998  3.2351215000000000  4.8526822500000000   F   F   F
  1.6010664999999999  0.0000000000000000  1.6175607500000000   F   F   F
  4.8031994999999998  0.0000000000000000  1.6175607500000000   F   F   F
  0.0000000000000000  3.2351215000000000  1.6175607500000000   F   F   F
  3.2021329999999999  3.2351215000000000  1.6175607500000000   F   F   F
  0.0000000000000000  0.0000000000000000  4.8526822500000000   F   F   F
  3.2021329999999999  0.0000000000000000  4.8526822500000000   F   F   F
  1.5990895254786670  3.2341482518295175 11.3725870676228293   F   F   F
  4.8061314264048516  3.2331646298599361 11.3806633206693988   F   F   F
  1.5982588097640018  0.0014061747939227  8.0750523806125347   F   F   F
  4.8077736633363068  0.0018739539770145  8.0837327485395054   F   F   F
 12.8066691943455293  3.2363564433819145  8.1107216554023314   F   F   F
  3.1998085844783208  3.2363907599504267  8.1108449813438561   F   F   F
 12.7813219790861581  6.4688250450571170 11.2656208061688687   F   F   F
  3.2274434671421077  6.4692691043143533 11.2712211816274888   F   F   F
  0.0000000000000000  3.2351215000000000  3.6132425009199376   F   F   F
  3.2021329999999999  3.2351215000000000  3.6132425009199376   F   F   F
  0.0000000000000000  0.0000000000000000  0.3781210009199379   F   F   F
  3.2021329999999999  0.0000000000000000  0.3781210009199379   F   F   F
  1.6010664999999999  5.2308032509199833  4.8526822500000000   F   F   F
  4.8031994999999998  5.2308032509199833  4.8526822500000000   F   F   F
  1.6010664999999999  1.9956817509199831  1.6175607500000000   F   F   F
  4.8031994999999998  1.9956817509199831  1.6175607500000000   F   F   F
  0.0000000000000000  3.2351215000000000  6.0921219990800619   F   F   F
  3.2021329999999999  3.2351215000000000  6.0921219990800619   F   F   F
  0.0000000000000000  0.0000000000000000  2.8570004990800624   F   F   F
  3.2021329999999999  0.0000000000000000  2.8570004990800624   F   F   F
  1.6010664999999999  1.2394397490800166  4.8526822500000000   F   F   F
  4.8031994999999998  1.2394397490800166  4.8526822500000000   F   F   F
  1.6010664999999999  4.4745612490800166  1.6175607500000000   F   F   F
  4.8031994999999998  4.4745612490800166  1.6175607500000000   F   F   F
 12.8028301790938990  3.2351040088737024 10.1099898640204238   F   F   F
  3.2051069685151181  3.2340781046493663 10.1087078496262439   F   F   F
 -0.0011597768547840  0.0032660029803020  6.8380933171692684   F   F   F
  3.1993318588568913  0.0033489335560045  6.8392640648761418   F   F   F
  1.5995659997920337  5.2456619885541960 11.3979485014163195   F   F   F
  4.8227560841614805  5.2425011414294005 11.4686140091936650   F   F   F
  1.5970091439744190  1.9961750639123124  8.1068041884997868   F   F   F
  4.8010034287770429  1.9959214021064589  8.0945029379965323   F   F   F
 12.8029866206431056  3.2349229479397419 12.5594642459453976   F   F   F
  3.2021136792014984  3.2294802421390592 12.5642520564997362   F   F   F
 12.8071428202381306  0.0001044592359170  9.3052250947332258   F   F   F
  3.1978793526128579  0.0006565825267647  9.3092890585434080   F   F   F
  1.5992686409695158  1.2230661826278209 11.3982578413775499   F   F   F
  4.8238552520208895  1.2238667353446504 11.4710701667681647   F   F   F
  1.5970715081233950  4.4762625671285203  8.1054307157526111   F   F   F
  4.8010156518468641  4.4779884274842834  8.0940490952450119   F   F   F
  8.0053324999999997  3.2351215000000000  4.8526822500000000   F   F   F
 11.2074654999999996  3.2351215000000000  4.8526822500000000   F   F   F
  8.0053324999999997  0.0000000000000000  1.6175607500000000   F   F   F
 11.2074654999999996  0.0000000000000000  1.6175607500000000   F   F   F
  6.4042659999999998  3.2351215000000000  1.6175607500000000   F   F   F
  9.6063989999999997  3.2351215000000000  1.6175607500000000   F   F   F
  6.4042659999999998  0.0000000000000000  4.8526822500000000   F   F   F
  9.6063989999999997  0.0000000000000000  4.8526822500000000   F   F   F
  8.0016742730794661  3.2332462053238662 11.2938744743768744   F   F   F
 11.1990904023949849  3.2327751458465315 11.3753952557694458   F   F   F
  7.9998621021875387  0.0010722672884854  8.1132746944455469   F   F   F
 11.1958845196312105  0.0012656706189185  8.0806009257122788   F   F   F
  6.3988217287246494  3.2365076763619149  8.0959493597992722   F   F   F
  9.6059589031025823  3.2357757792289732  8.0946008430301948   F   F   F
  6.4729671718876407  6.4673481466094600 11.4073216956708041   F   F   F
  9.5340133616856111  6.4675908406417761 11.3989791370723381   F   F   F
  6.4042659999999998  3.2351215000000000  3.6132425009199376   F   F   F
  9.6063989999999997  3.2351215000000000  3.6132425009199376   F   F   F
  6.4042659999999998  0.0000000000000000  0.3781210009199379   F   F   F
  9.6063989999999997  0.0000000000000000  0.3781210009199379   F   F   F
  8.0053324999999997  5.2308032509199833  4.8526822500000000   F   F   F
 11.2074654999999996  5.2308032509199833  4.8526822500000000   F   F   F
  8.0053324999999997  1.9956817509199831  1.6175607500000000   F   F   F
 11.2074654999999996  1.9956817509199831  1.6175607500000000   F   F   F
  6.4042659999999998  3.2351215000000000  6.0921219990800619   F   F   F
  9.6063989999999997  3.2351215000000000  6.0921219990800619   F   F   F
  6.4042659999999998  0.0000000000000000  2.8570004990800624   F   F   F
  9.6063989999999997  0.0000000000000000  2.8570004990800624   F   F   F
  8.0053324999999997  1.2394397490800166  4.8526822500000000   F   F   F
 11.2074654999999996  1.2394397490800166  4.8526822500000000   F   F   F
  8.0053324999999997  4.4745612490800166  1.6175607500000000   F   F   F
 11.2074654999999996  4.4745612490800166  1.6175607500000000   F   F   F
  6.3785076533571985  3.2342750204565385 10.0749208811630897   F   F   F
  9.6214287832416243  3.2308374196690575 10.0735568280726326   F   F   F
  6.4064680339483866  6.4706938000437120  6.8559636224042029   F   F   F
  9.5956511109487561  6.4704967247986129  6.8543949188740410   F   F   F
  8.0019298751110739  5.2101878195185263 11.0696416402787019   F   F   F
 11.1833135389368277  5.2411590170550406 11.4504764243666131   F   F   F
  7.9998936832013374  1.9937989166829746  8.0845301608824567   F   F   F
 11.2078125540355646  1.9953191930788206  8.0910025816282136   F   F   F
  6.4417492793576505  3.2339956206437352 12.5129154293837921   F   F   F
  9.5643511965466814  3.2343510629377010 12.5100705684352587   F   F   F
  6.3471798013622571  0.0022203246220688  9.3428263894261594   F   F   F
  9.6515748138755377  0.0025927429526116  9.3376276175088275   F   F   F
  8.0020371092580476  1.2569026840070157 11.0793559676102618   F   F   F
 11.1838030409307123  1.2247820978599344 11.4560141620829903   F   F   F
  8.0000868679551420  4.4783931215738839  8.0894738292969279   F   F   F
 11.2073396249442023  4.4775742052585796  8.0937529822816447   F   F   F
  8.8641911411942367  6.4560353775087878 13.1643856917025950   T   T   T
  7.1496302684776945  6.4547488254820564 13.1708101340154133   T   T   T
