Ir64 O140
1.0
12.808532 0.000000 0.000000
0.000000 12.940486 0.000000
0.000000 0.000000 25.880972
Ir O
64 140
Selective dynamics
direct
0.125000 0.250000 0.187500 F F F Ir
0.375000 0.250000 0.187500 F F F Ir
0.125000 0.000000 0.062500 F F F Ir
0.375000 0.000000 0.062500 F F F Ir
0.000000 0.250000 0.062500 F F F Ir
0.250000 0.250000 0.062500 F F F Ir
0.000000 0.000000 0.187500 F F F Ir
0.250000 0.000000 0.187500 F F F Ir
0.125043 0.248246 0.437849 T T T Ir
0.374965 0.248192 0.437850 T T T Ir
0.124979 0.999173 0.312705 T T T Ir
0.374982 0.999170 0.312692 T T T Ir
0.999956 0.249072 0.312808 T T T Ir
0.250009 0.249164 0.312821 T T T Ir
0.999825 0.998206 0.441078 T T T Ir
0.250055 0.998357 0.441096 T T T Ir
0.625000 0.250000 0.187500 F F F Ir
0.875000 0.250000 0.187500 F F F Ir
0.625000 0.000000 0.062500 F F F Ir
0.875000 0.000000 0.062500 F F F Ir
0.500000 0.250000 0.062500 F F F Ir
0.750000 0.250000 0.062500 F F F Ir
0.500000 0.000000 0.187500 F F F Ir
0.750000 0.000000 0.187500 F F F Ir
0.624832 0.248436 0.438192 T T T Ir
0.875279 0.248346 0.437955 T T T Ir
0.624945 0.999129 0.312635 T T T Ir
0.875048 0.999085 0.312637 T T T Ir
0.500072 0.249109 0.312898 T T T Ir
0.749992 0.249198 0.312947 T T T Ir
0.500252 0.998179 0.440865 T T T Ir
0.750061 0.998171 0.440669 T T T Ir
0.125000 0.750000 0.187500 F F F Ir
0.375000 0.750000 0.187500 F F F Ir
0.125000 0.500000 0.062500 F F F Ir
0.375000 0.500000 0.062500 F F F Ir
0.000000 0.750000 0.062500 F F F Ir
0.250000 0.750000 0.062500 F F F Ir
0.000000 0.500000 0.187500 F F F Ir
0.250000 0.500000 0.187500 F F F Ir
0.125044 0.748416 0.437813 T T T Ir
0.375019 0.748411 0.437774 T T T Ir
0.124973 0.499147 0.312686 T T T Ir
0.375095 0.499050 0.312772 T T T Ir
0.999970 0.749076 0.312821 T T T Ir
0.250011 0.749160 0.312802 T T T Ir
0.000083 0.498157 0.441501 T T T Ir
0.249765 0.498329 0.440793 T T T Ir
0.625000 0.750000 0.187500 F F F Ir
0.875000 0.750000 0.187500 F F F Ir
0.625000 0.500000 0.062500 F F F Ir
0.875000 0.500000 0.062500 F F F Ir
0.500000 0.750000 0.062500 F F F Ir
0.750000 0.750000 0.062500 F F F Ir
0.500000 0.500000 0.187500 F F F Ir
0.750000 0.500000 0.187500 F F F Ir
0.624930 0.747767 0.438081 T T T Ir
0.875225 0.747849 0.437976 T T T Ir
0.624710 0.499029 0.312785 T T T Ir
0.875191 0.499079 0.312769 T T T Ir
0.500027 0.749083 0.312856 T T T Ir
0.749974 0.748987 0.312929 T T T Ir
0.499472 0.498147 0.441559 T T T Ir
0.749934 0.497861 0.439524 T T T Ir
0.000000 0.250000 0.139610 F F F O
0.250000 0.250000 0.139610 F F F O
0.000000 0.000000 0.014610 F F F O
0.250000 0.000000 0.014610 F F F O
0.125000 0.404220 0.187500 F F F O
0.375000 0.404220 0.187500 F F F O
0.125000 0.154220 0.062500 F F F O
0.375000 0.154220 0.062500 F F F O
0.000000 0.250000 0.235390 F F F O
0.250000 0.250000 0.235390 F F F O
0.000000 0.000000 0.110390 F F F O
0.250000 0.000000 0.110390 F F F O
0.125000 0.095780 0.187500 F F F O
0.375000 0.095780 0.187500 F F F O
0.125000 0.345780 0.062500 F F F O
0.375000 0.345780 0.062500 F F F O
0.000069 0.248181 0.389364 T T T O
0.250007 0.248567 0.389394 T T T O
0.000021 0.999702 0.264878 T T T O
0.249968 0.999613 0.264800 T T T O
0.124796 0.402546 0.435577 T T T O
0.374752 0.402504 0.435420 T T T O
0.124916 0.153166 0.312452 T T T O
0.375063 0.153173 0.312474 T T T O
0.000161 0.248251 0.483413 T T T O
0.249999 0.248526 0.483379 T T T O
0.999993 0.998939 0.360715 T T T O
0.249985 0.998731 0.360755 T T T O
0.124836 0.093823 0.436191 T T T O
0.375192 0.093838 0.436125 T T T O
0.124738 0.345173 0.312483 T T T O
0.375247 0.345114 0.312554 T T T O
0.500000 0.250000 0.139610 F F F O
0.750000 0.250000 0.139610 F F F O
0.500000 0.000000 0.014610 F F F O
0.750000 0.000000 0.014610 F F F O
0.625000 0.404220 0.187500 F F F O
0.875000 0.404220 0.187500 F F F O
0.625000 0.154220 0.062500 F F F O
0.875000 0.154220 0.062500 F F F O
0.500000 0.250000 0.235390 F F F O
0.750000 0.250000 0.235390 F F F O
0.500000 0.000000 0.110390 F F F O
0.750000 0.000000 0.110390 F F F O
0.625000 0.095780 0.187500 F F F O
0.875000 0.095780 0.187500 F F F O
0.625000 0.345780 0.062500 F F F O
0.875000 0.345780 0.062500 F F F O
0.500080 0.248390 0.389508 T T T O
0.749970 0.248946 0.389585 T T T O
0.499978 0.999720 0.264868 T T T O
0.750000 0.999582 0.264721 T T T O
0.623893 0.402849 0.438432 T T T O
0.876358 0.402198 0.436738 T T T O
0.624919 0.153173 0.312454 T T T O
0.875059 0.153099 0.312472 T T T O
0.499596 0.247647 0.483516 T T T O
0.750386 0.248254 0.483657 T T T O
0.499960 0.998864 0.360656 T T T O
0.750013 0.998691 0.360530 T T T O
0.625186 0.093807 0.435520 T T T O
0.874955 0.093901 0.435879 T T T O
0.624869 0.345139 0.312773 T T T O
0.875182 0.345155 0.312679 T T T O
0.749679 0.998539 0.510071 T T T O
0.000000 0.750000 0.139610 F F F O
0.250000 0.750000 0.139610 F F F O
0.000000 0.500000 0.014610 F F F O
0.250000 0.500000 0.014610 F F F O
0.125000 0.904220 0.187500 F F F O
0.375000 0.904220 0.187500 F F F O
0.125000 0.654220 0.062500 F F F O
0.375000 0.654220 0.062500 F F F O
0.000000 0.750000 0.235390 F F F O
0.250000 0.750000 0.235390 F F F O
0.000000 0.500000 0.110390 F F F O
0.250000 0.500000 0.110390 F F F O
0.125000 0.595780 0.187500 F F F O
0.375000 0.595780 0.187500 F F F O
0.125000 0.845780 0.062500 F F F O
0.375000 0.845780 0.062500 F F F O
0.000011 0.748284 0.389383 T T T O
0.249993 0.748696 0.389355 T T T O
0.000145 0.499582 0.264795 T T T O
0.250056 0.499631 0.264800 T T T O
0.124821 0.902808 0.435830 T T T O
0.375218 0.902822 0.435790 T T T O
0.124953 0.653108 0.312410 T T T O
0.375085 0.653072 0.312470 T T T O
0.000206 0.748342 0.483388 T T T O
0.250071 0.748930 0.483270 T T T O
0.999953 0.498887 0.360844 T T T O
0.249973 0.498715 0.360608 T T T O
0.124761 0.594053 0.435967 T T T O
0.374676 0.594014 0.435448 T T T O
0.124769 0.845161 0.312567 T T T O
0.375239 0.845141 0.312595 T T T O
0.500000 0.750000 0.139610 F F F O
0.750000 0.750000 0.139610 F F F O
0.500000 0.500000 0.014610 F F F O
0.750000 0.500000 0.014610 F F F O
0.625000 0.904220 0.187500 F F F O
0.875000 0.904220 0.187500 F F F O
0.625000 0.654220 0.062500 F F F O
0.875000 0.654220 0.062500 F F F O
0.500000 0.750000 0.235390 F F F O
0.750000 0.750000 0.235390 F F F O
0.500000 0.500000 0.110390 F F F O
0.750000 0.500000 0.110390 F F F O
0.625000 0.595780 0.187500 F F F O
0.875000 0.595780 0.187500 F F F O
0.625000 0.845780 0.062500 F F F O
0.875000 0.845780 0.062500 F F F O
0.500083 0.748311 0.389417 T T T O
0.749953 0.747658 0.389557 T T T O
0.499930 0.499555 0.264848 T T T O
0.749957 0.499599 0.264862 T T T O
0.625211 0.902421 0.435252 T T T O
0.874964 0.902467 0.435464 T T T O
0.624815 0.653058 0.312639 T T T O
0.875043 0.653000 0.312528 T T T O
0.499888 0.748327 0.483392 T T T O
0.750215 0.748215 0.483656 T T T O
0.500124 0.498062 0.361109 T T T O
0.749793 0.498839 0.360777 T T T O
0.624355 0.593154 0.438153 T T T O
0.875924 0.593795 0.437494 T T T O
0.624818 0.845074 0.312561 T T T O
0.875144 0.845043 0.312631 T T T O
0.250367 0.998629 0.510484 T T T O
0.249923 0.498480 0.510191 T T T O
0.758155 0.494528 0.515401 T T T O
0.998890 0.997435 0.510473 T T T O
0.494117 0.498816 0.510773 T T T O
0.501297 0.997680 0.510237 T T T O
0.002920 0.497560 0.510768 T T T O
0.674099 0.965561 0.627259 T T T O
0.587837 0.007708 0.628563 T T T O
0.676528 0.489067 0.544025 T T T O
0.630968 0.986634 0.558362 T T T O
