Ir  O Ir  O
 1.0000000000000000
  12.8085319999999996   0.0000000000000000   0.0000000000000000
   0.0000000000000000   6.4702430000000000   0.0000000000000000
   0.0000000000000000   0.0000000000000000  25.8809719999999999
Ir  O Ir  O
16  34  16  34  
Selective dynamics
Direct
  0.1250000000000000  0.5000000000000000  0.1875000000000000 F F F
  0.3750000000000000  0.5000000000000000  0.1875000000000000 F F F
  0.1250000000000000  0.0000000000000000  0.0625000000000000 F F F
  0.3750000000000000  0.0000000000000000  0.0625000000000000 F F F
  0.0000000000000000  0.5000000000000000  0.0625000000000000 F F F
  0.2500000000000000  0.5000000000000000  0.0625000000000000 F F F
  0.0000000000000000  0.0000000000000000  0.1875000000000000 F F F
  0.2500000000000000  0.0000000000000000  0.1875000000000000 F F F
  0.1249405097855740  0.5000000000000000  0.4381561555524200 T T T
  0.3748149160597480  0.5000000000000000  0.4386285576838990 T T T
  0.1248215828496700  0.0000000000000000  0.3132939170919040 T T T
  0.3732592972247350  0.0000000000000000  0.3126242191072070 T T T
  0.0000722600320060  0.5000000000000000  0.3130288097172100 T T T
  0.2497039018130210  0.5000000000000000  0.3130062449037960 T T T
  0.9996494121105360  0.0000000000000000  0.4424885533466640 T T T
  0.2501151739357680  0.0000000000000000  0.4424946365466480 T T T
  0.0000000000000000  0.5000000000000000  0.1396099999999980 F F F
  0.2500000000000000  0.5000000000000000  0.1396099999999980 F F F
  0.0000000000000000  0.0000000000000000  0.0146099999999976 F F F
  0.2500000000000000  0.0000000000000000  0.0146099999999976 F F F
  0.1250000000000000  0.8084399999999970  0.1875000000000000 F F F
  0.3750000000000000  0.8084399999999970  0.1875000000000000 F F F
  0.1250000000000000  0.3084399999999970  0.0625000000000000 F F F
  0.3750000000000000  0.3084399999999970  0.0625000000000000 F F F
  0.0000000000000000  0.5000000000000000  0.2353900000000020 F F F
  0.2500000000000000  0.5000000000000000  0.2353900000000020 F F F
  0.0000000000000000  0.0000000000000000  0.1103900000000020 F F F
  0.2500000000000000  0.0000000000000000  0.1103900000000020 F F F
  0.1250000000000000  0.1915600000000030  0.1875000000000000 F F F
  0.3750000000000000  0.1915600000000030  0.1875000000000000 F F F
  0.1250000000000000  0.6915600000000030  0.0625000000000000 F F F
  0.3750000000000000  0.6915600000000030  0.0625000000000000 F F F
  0.9998914593632190  0.5000000000000000  0.3898566950703000 T T T
  0.2499119589507540  0.5000000000000000  0.3897533490539970 T T T
  0.0003716942354544  0.0000000000000000  0.2647900090369010 T T T
  0.2494169225585810  0.0000000000000000  0.2647588939515590 T T T
  0.1248059581707320  0.8090237068253930  0.4365313884899750 T T T
  0.3761577076023170  0.8085599520634900  0.4391809042938990 T T T
  0.1246883697422020  0.3076476386854880  0.3129312619356880 T T T
  0.3745339393262700  0.3080685778039080  0.3127280488356090 T T T
  0.0004950294382553  0.5000000000000000  0.4839298967605220 T T T
  0.2495369713313740  0.5000000000000000  0.4840032207876350 T T T
  0.9995092032802830  0.0000000000000000  0.3614760695183460 T T T
  0.2501752423288860  0.0000000000000000  0.3614978911526450 T T T
  0.1248059581707320  0.1909762931746070  0.4365313884899750 T T T
  0.3761577076023170  0.1914400479365030  0.4391809042938990 T T T
  0.1246883697422020  0.6923523613145121  0.3129312619356880 T T T
  0.3745339393262700  0.6919314221960560  0.3127280488356090 T T T
  0.2480978244933350  0.0000000000000000  0.5119613282172110 T T T
  0.0030313738572332  0.0000000000000000  0.5119029254480050 T T T
  0.6250000000000000  0.5000000000000000  0.1875000000000000 F F F
  0.8750000000000000  0.5000000000000000  0.1875000000000000 F F F
  0.6250000000000000  0.0000000000000000  0.0625000000000000 F F F
  0.8750000000000000  0.0000000000000000  0.0625000000000000 F F F
  0.5000000000000000  0.5000000000000000  0.0625000000000000 F F F
  0.7500000000000000  0.5000000000000000  0.0625000000000000 F F F
  0.5000000000000000  0.0000000000000000  0.1875000000000000 F F F
  0.7500000000000000  0.0000000000000000  0.1875000000000000 F F F
  0.6248972824249530  0.5000000000000000  0.4384535177138890 T T T
  0.8749877824971860  0.5000000000000000  0.4387205549198680 T T T
  0.6248970442917640  0.0000000000000000  0.3119285782663820 T T T
  0.8765879681902150  0.0000000000000000  0.3126460072677090 T T T
  0.4996286986652190  0.5000000000000000  0.3129513740736560 T T T
  0.7501104809230770  0.5000000000000000  0.3129753267396110 T T T
  0.5009547153563360  0.0000000000000000  0.4351398477500650 T T T
  0.7488352918472000  0.0000000000000000  0.4352514762278620 T T T
  0.5000000000000000  0.5000000000000000  0.1396099999999980 F F F
  0.7500000000000000  0.5000000000000000  0.1396099999999980 F F F
  0.5000000000000000  0.0000000000000000  0.0146099999999976 F F F
  0.7500000000000000  0.0000000000000000  0.0146099999999976 F F F
  0.6250000000000000  0.8084399999999970  0.1875000000000000 F F F
  0.8750000000000000  0.8084399999999970  0.1875000000000000 F F F
  0.6250000000000000  0.3084399999999970  0.0625000000000000 F F F
  0.8750000000000000  0.3084399999999970  0.0625000000000000 F F F
  0.5000000000000000  0.5000000000000000  0.2353900000000020 F F F
  0.7500000000000000  0.5000000000000000  0.2353900000000020 F F F
  0.5000000000000000  0.0000000000000000  0.1103900000000020 F F F
  0.7500000000000000  0.0000000000000000  0.1103900000000020 F F F
  0.6250000000000000  0.1915600000000030  0.1875000000000000 F F F
  0.8750000000000000  0.1915600000000030  0.1875000000000000 F F F
  0.6250000000000000  0.6915600000000030  0.0625000000000000 F F F
  0.8750000000000000  0.6915600000000030  0.0625000000000000 F F F
  0.4996436512420740  0.5000000000000000  0.3898187321780990 T T T
  0.7502314771968130  0.5000000000000000  0.3898414924858430 T T T
  0.4994844063121630  0.0000000000000000  0.2644355804538850 T T T
  0.7503875829474540  0.0000000000000000  0.2644587620835640 T T T
  0.6248165837078470  0.8088633908986580  0.4382327453741580 T T T
  0.8736191139670740  0.8086747434328030  0.4396263762476660 T T T
  0.6247462962096220  0.3083921268585360  0.3125124448128820 T T T
  0.8754450574473790  0.3079891447573790  0.3127037369340610 T T T
  0.5001191780873170  0.5000000000000000  0.4844690114086990 T T T
  0.7496034215964970  0.5000000000000000  0.4844923143647650 T T T
  0.4991174694022860  0.0000000000000000  0.3593634878308830 T T T
  0.7506078260436910  0.0000000000000000  0.3594487793645270 T T T
  0.6248165837078470  0.1911366091013420  0.4382327453741580 T T T
  0.8736191139670740  0.1913252565671970  0.4396263762476660 T T T
  0.6247462962096220  0.6916078731414290  0.3125124448128820 T T T
  0.8754450574473790  0.6920108552426210  0.3127037369340610 T T T
  0.6745463708645540  0.0000000000000000  0.7009636672449200 T T T
  0.5758050662777020  0.0000000000000000  0.7008649999155310 T T T
