Ir64 O136
1.0
12.808532 0.000000 0.000000
0.000000 12.940486 0.000000
0.000000 0.000000 25.880972
Ir O
64 136
Selective dynamics
direct
0.125000 0.250000 0.187500 F F F Ir
0.375000 0.250000 0.187500 F F F Ir
0.125000 0.000000 0.062500 F F F Ir
0.375000 0.000000 0.062500 F F F Ir
0.000000 0.250000 0.062500 F F F Ir
0.250000 0.250000 0.062500 F F F Ir
0.000000 0.000000 0.187500 F F F Ir
0.250000 0.000000 0.187500 F F F Ir
0.125048 0.249103 0.438464 T T T Ir
0.375061 0.248555 0.438216 T T T Ir
0.125088 0.999449 0.312849 T T T Ir
0.375136 0.999496 0.313077 T T T Ir
0.999987 0.249569 0.313148 T T T Ir
0.250049 0.249334 0.313034 T T T Ir
0.999916 0.998640 0.440793 T T T Ir
0.249541 0.998666 0.441538 T T T Ir
0.625000 0.250000 0.187500 F F F Ir
0.875000 0.250000 0.187500 F F F Ir
0.625000 0.000000 0.062500 F F F Ir
0.875000 0.000000 0.062500 F F F Ir
0.500000 0.250000 0.062500 F F F Ir
0.750000 0.250000 0.062500 F F F Ir
0.500000 0.000000 0.187500 F F F Ir
0.750000 0.000000 0.187500 F F F Ir
0.624887 0.248555 0.438229 T T T Ir
0.874893 0.249077 0.438463 T T T Ir
0.624841 0.999500 0.313073 T T T Ir
0.874883 0.999449 0.312842 T T T Ir
0.500000 0.249426 0.312975 T T T Ir
0.749946 0.249347 0.313041 T T T Ir
0.499959 0.998613 0.442051 T T T Ir
0.750356 0.998641 0.441497 T T T Ir
0.125000 0.750000 0.187500 F F F Ir
0.375000 0.750000 0.187500 F F F Ir
0.125000 0.500000 0.062500 F F F Ir
0.375000 0.500000 0.062500 F F F Ir
0.000000 0.750000 0.062500 F F F Ir
0.250000 0.750000 0.062500 F F F Ir
0.000000 0.500000 0.187500 F F F Ir
0.250000 0.500000 0.187500 F F F Ir
0.125035 0.748311 0.438192 T T T Ir
0.375022 0.748842 0.438243 T T T Ir
0.126442 0.499467 0.312779 T T T Ir
0.375130 0.499476 0.313056 T T T Ir
1.000000 0.749340 0.312964 T T T Ir
0.250102 0.749675 0.312970 T T T Ir
0.999975 0.498610 0.435024 T T T Ir
0.250049 0.498815 0.442500 T T T Ir
0.625000 0.750000 0.187500 F F F Ir
0.875000 0.750000 0.187500 F F F Ir
0.625000 0.500000 0.062500 F F F Ir
0.875000 0.500000 0.062500 F F F Ir
0.500000 0.750000 0.062500 F F F Ir
0.750000 0.750000 0.062500 F F F Ir
0.500000 0.500000 0.187500 F F F Ir
0.750000 0.500000 0.187500 F F F Ir
0.624922 0.748836 0.438246 T T T Ir
0.874932 0.748297 0.438190 T T T Ir
0.624865 0.499482 0.313058 T T T Ir
0.873576 0.499489 0.312782 T T T Ir
0.499992 0.749589 0.313020 T T T Ir
0.749881 0.749684 0.312977 T T T Ir
0.499974 0.498731 0.441558 T T T Ir
0.749918 0.498804 0.442512 T T T Ir
0.000000 0.250000 0.139610 F F F O
0.250000 0.250000 0.139610 F F F O
0.000000 0.000000 0.014610 F F F O
0.250000 0.000000 0.014610 F F F O
0.125000 0.404220 0.187500 F F F O
0.375000 0.404220 0.187500 F F F O
0.125000 0.154220 0.062500 F F F O
0.375000 0.154220 0.062500 F F F O
0.000000 0.250000 0.235390 F F F O
0.250000 0.250000 0.235390 F F F O
0.000000 0.000000 0.110390 F F F O
0.250000 0.000000 0.110390 F F F O
0.125000 0.095780 0.187500 F F F O
0.375000 0.095780 0.187500 F F F O
0.125000 0.345780 0.062500 F F F O
0.375000 0.345780 0.062500 F F F O
0.999993 0.249971 0.389979 T T T O
0.250060 0.248763 0.389682 T T T O
0.999989 0.999945 0.264943 T T T O
0.250347 0.999751 0.264922 T T T O
0.124582 0.403350 0.439194 T T T O
0.375060 0.403156 0.436406 T T T O
0.124902 0.153481 0.312660 T T T O
0.375127 0.153379 0.312582 T T T O
1.000000 0.249501 0.484189 T T T O
0.250252 0.248615 0.483888 T T T O
0.999985 0.999263 0.360745 T T T O
0.250099 0.998895 0.361120 T T T O
0.124553 0.094552 0.436003 T T T O
0.374999 0.094044 0.437099 T T T O
0.125136 0.345345 0.313149 T T T O
0.375141 0.345403 0.312828 T T T O
0.500000 0.250000 0.139610 F F F O
0.750000 0.250000 0.139610 F F F O
0.500000 0.000000 0.014610 F F F O
0.750000 0.000000 0.014610 F F F O
0.625000 0.404220 0.187500 F F F O
0.875000 0.404220 0.187500 F F F O
0.625000 0.154220 0.062500 F F F O
0.875000 0.154220 0.062500 F F F O
0.500000 0.250000 0.235390 F F F O
0.750000 0.250000 0.235390 F F F O
0.500000 0.000000 0.110390 F F F O
0.750000 0.000000 0.110390 F F F O
0.625000 0.095780 0.187500 F F F O
0.875000 0.095780 0.187500 F F F O
0.625000 0.345780 0.062500 F F F O
0.875000 0.345780 0.062500 F F F O
0.500019 0.248735 0.389646 T T T O
0.749908 0.248771 0.389691 T T T O
0.500013 0.999938 0.265077 T T T O
0.749602 0.999761 0.264916 T T T O
0.624907 0.403149 0.436450 T T T O
0.875429 0.403348 0.439260 T T T O
0.624863 0.153385 0.312581 T T T O
0.875086 0.153476 0.312660 T T T O
0.499961 0.248257 0.483664 T T T O
0.749705 0.248599 0.483904 T T T O
0.499967 0.999331 0.361366 T T T O
0.749844 0.998918 0.361097 T T T O
0.624977 0.094012 0.437081 T T T O
0.875260 0.094528 0.435885 T T T O
0.624841 0.345421 0.312840 T T T O
0.874849 0.345351 0.313164 T T T O
0.752979 0.998221 0.510895 T T T O
0.000000 0.750000 0.139610 F F F O
0.250000 0.750000 0.139610 F F F O
0.000000 0.500000 0.014610 F F F O
0.250000 0.500000 0.014610 F F F O
0.125000 0.904220 0.187500 F F F O
0.375000 0.904220 0.187500 F F F O
0.125000 0.654220 0.062500 F F F O
0.375000 0.654220 0.062500 F F F O
0.000000 0.750000 0.235390 F F F O
0.250000 0.750000 0.235390 F F F O
0.000000 0.500000 0.110390 F F F O
0.250000 0.500000 0.110390 F F F O
0.125000 0.595780 0.187500 F F F O
0.375000 0.595780 0.187500 F F F O
0.125000 0.845780 0.062500 F F F O
0.375000 0.845780 0.062500 F F F O
0.999995 0.748052 0.389593 T T T O
0.250077 0.748879 0.389613 T T T O
0.999992 0.499881 0.264944 T T T O
0.250139 0.499702 0.264725 T T T O
0.124706 0.902868 0.435548 T T T O
0.374910 0.903185 0.436950 T T T O
0.125350 0.653653 0.312846 T T T O
0.375149 0.653573 0.312673 T T T O
0.999946 0.748284 0.483691 T T T O
0.250006 0.748505 0.483849 T T T O
0.999988 0.499983 0.359883 T T T O
0.249969 0.498898 0.361461 T T T O
0.124500 0.593998 0.438967 T T T O
0.375123 0.594334 0.436300 T T T O
0.124802 0.845410 0.312666 T T T O
0.375275 0.845610 0.312756 T T T O
0.500000 0.750000 0.139610 F F F O
0.750000 0.750000 0.139610 F F F O
0.500000 0.500000 0.014610 F F F O
0.750000 0.500000 0.014610 F F F O
0.625000 0.904220 0.187500 F F F O
0.875000 0.904220 0.187500 F F F O
0.625000 0.654220 0.062500 F F F O
0.875000 0.654220 0.062500 F F F O
0.500000 0.750000 0.235390 F F F O
0.750000 0.750000 0.235390 F F F O
0.500000 0.500000 0.110390 F F F O
0.750000 0.500000 0.110390 F F F O
0.625000 0.595780 0.187500 F F F O
0.875000 0.595780 0.187500 F F F O
0.625000 0.845780 0.062500 F F F O
0.875000 0.845780 0.062500 F F F O
0.499985 0.749490 0.389738 T T T O
0.749900 0.748910 0.389620 T T T O
0.500012 0.499869 0.265010 T T T O
0.749866 0.499707 0.264730 T T T O
0.625001 0.903178 0.436969 T T T O
0.875154 0.902816 0.435501 T T T O
0.624835 0.653581 0.312665 T T T O
0.874624 0.653657 0.312870 T T T O
0.499953 0.748528 0.483693 T T T O
0.749957 0.748505 0.483847 T T T O
0.499999 0.499178 0.360968 T T T O
0.750049 0.498914 0.361476 T T T O
0.624842 0.594322 0.436326 T T T O
0.875453 0.594000 0.438983 T T T O
0.624676 0.845615 0.312739 T T T O
0.875187 0.845416 0.312671 T T T O
0.247081 0.998223 0.510923 T T T O
0.252806 0.499315 0.511850 T T T O
0.747198 0.499445 0.511895 T T T O
0.999756 0.997913 0.510243 T T T O
0.499978 0.498533 0.510953 T T T O
0.500001 0.998194 0.511416 T T T O
0.499978 0.498533 0.541864 T T T O
