Ir64 O129                               
   1.00000000000000     
    12.8085319999999996    0.0000000000000000    0.0000000000000000
     0.0000000000000000   12.9404859999999999    0.0000000000000000
     0.0000000000000000    0.0000000000000000   25.8809719999999999
   Ir   O 
    64   129
Selective dynamics
Direct
  0.1250000000000000  0.2500000000000000  0.1875000000000000   F   F   F
  0.3750000000000000  0.2500000000000000  0.1875000000000000   F   F   F
  0.1250000000000000  0.0000000000000000  0.0625000000000000   F   F   F
  0.3750000000000000  0.0000000000000000  0.0625000000000000   F   F   F
  0.0000000000000000  0.2500000000000000  0.0625000000000000   F   F   F
  0.2500000000000000  0.2500000000000000  0.0625000000000000   F   F   F
  0.0000000000000000  0.0000000000000000  0.1875000000000000   F   F   F
  0.2500000000000000  0.0000000000000000  0.1875000000000000   F   F   F
  0.1257125375528663  0.2505260132366781  0.4392106149422920   T   T   T
  0.3757514782618384  0.2499699227267017  0.4395765923718915   T   T   T
  0.1238493681702786 -0.0000027530775938  0.3128226888331559   T   T   T
  0.3752119786248259 -0.0000033966262934  0.3120142380780460   T   T   T
  0.0004076441460335  0.2501678195904523  0.3132737729807862   T   T   T
  0.2503711853351434  0.2498847018040027  0.3133739429473219   T   T   T
  0.0010681838021629  0.0000348066937011  0.4430136541772851   T   T   T
  0.2507605973447369  0.0000064597721632  0.4348739322053562   T   T   T
  0.6250000000000000  0.2500000000000000  0.1875000000000000   F   F   F
  0.8750000000000000  0.2500000000000000  0.1875000000000000   F   F   F
  0.6250000000000000  0.0000000000000000  0.0625000000000000   F   F   F
  0.8750000000000000  0.0000000000000000  0.0625000000000000   F   F   F
  0.5000000000000000  0.2500000000000000  0.0625000000000000   F   F   F
  0.7500000000000000  0.2500000000000000  0.0625000000000000   F   F   F
  0.5000000000000000  0.0000000000000000  0.1875000000000000   F   F   F
  0.7500000000000000  0.0000000000000000  0.1875000000000000   F   F   F
  0.6258678088007532  0.2499749810553674  0.4395474737832487   T   T   T
  0.8759823434424007  0.2506806039682213  0.4391380549275839   T   T   T
  0.6257189482977998  0.0000042201855491  0.3120004892805153   T   T   T
  0.8770958579719794 -0.0000443306124216  0.3127948462233219   T   T   T
  0.5003495991872148  0.2499256016693854  0.3133721841257018   T   T   T
  0.7504306553075111  0.2498540156265833  0.3132986019615715   T   T   T
  0.5010369324980265  0.0001488154285099  0.4352264867987267   T   T   T
  0.7513464470839548  0.0001531184432629  0.4349422983083939   T   T   T
  0.1250000000000000  0.7500000000000000  0.1875000000000000   F   F   F
  0.3750000000000000  0.7500000000000000  0.1875000000000000   F   F   F
  0.1250000000000000  0.5000000000000000  0.0625000000000000   F   F   F
  0.3750000000000000  0.5000000000000000  0.0625000000000000   F   F   F
  0.0000000000000000  0.7500000000000000  0.0625000000000000   F   F   F
  0.2500000000000000  0.7500000000000000  0.0625000000000000   F   F   F
  0.0000000000000000  0.5000000000000000  0.1875000000000000   F   F   F
  0.2500000000000000  0.5000000000000000  0.1875000000000000   F   F   F
  0.1256937717119891  0.7494326386473964  0.4392471165666867   T   T   T
  0.3757448222726421  0.7501515290828688  0.4395875168420550   T   T   T
  0.1253106834243878  0.4998627846691402  0.3123048460124479   T   T   T
  0.3754248933498333  0.4999645680648947  0.3122219683721530   T   T   T
  0.0004386467069091  0.7497256526936613  0.3132814744504510   T   T   T
  0.2503460542824814  0.7500424016752327  0.3133221325569718   T   T   T
  0.0008153195171350  0.5000529478229407  0.4358537124545496   T   T   T
  0.2510153224865657  0.5000170323216779  0.4357004237864154   T   T   T
  0.6250000000000000  0.7500000000000000  0.1875000000000000   F   F   F
  0.8750000000000000  0.7500000000000000  0.1875000000000000   F   F   F
  0.6250000000000000  0.5000000000000000  0.0625000000000000   F   F   F
  0.8750000000000000  0.5000000000000000  0.0625000000000000   F   F   F
  0.5000000000000000  0.7500000000000000  0.0625000000000000   F   F   F
  0.7500000000000000  0.7500000000000000  0.0625000000000000   F   F   F
  0.5000000000000000  0.5000000000000000  0.1875000000000000   F   F   F
  0.7500000000000000  0.5000000000000000  0.1875000000000000   F   F   F
  0.6258599404698472  0.7502776666010604  0.4395575860232082   T   T   T
  0.8759507622601879  0.7495316690099983  0.4391765520741865   T   T   T
  0.6252147126695995  0.5001050634149704  0.3121968649324294   T   T   T
  0.8752473982802802  0.5000256282518936  0.3122623676609218   T   T   T
  0.5003766798554965  0.7500792338727720  0.3133441945761474   T   T   T
  0.7504686083681648  0.7501450349972985  0.3132978968322606   T   T   T
  0.5008623411750422  0.5000947264900046  0.4355706750682914   T   T   T
  0.7506561348049846  0.5001585492382216  0.4357175313425051   T   T   T
  0.0000000000000000  0.2500000000000000  0.1396099999999976   F   F   F
  0.2500000000000000  0.2500000000000000  0.1396099999999976   F   F   F
  0.0000000000000000  0.0000000000000000  0.0146099999999976   F   F   F
  0.2500000000000000  0.0000000000000000  0.0146099999999976   F   F   F
  0.1250000000000000  0.4042200000000022  0.1875000000000000   F   F   F
  0.3750000000000000  0.4042200000000022  0.1875000000000000   F   F   F
  0.1250000000000000  0.1542200000000022  0.0625000000000000   F   F   F
  0.3750000000000000  0.1542200000000022  0.0625000000000000   F   F   F
  0.0000000000000000  0.2500000000000000  0.2353900000000024   F   F   F
  0.2500000000000000  0.2500000000000000  0.2353900000000024   F   F   F
  0.0000000000000000  0.0000000000000000  0.1103900000000024   F   F   F
  0.2500000000000000  0.0000000000000000  0.1103900000000024   F   F   F
  0.1250000000000000  0.0957799999999978  0.1875000000000000   F   F   F
  0.3750000000000000  0.0957799999999978  0.1875000000000000   F   F   F
  0.1250000000000000  0.3457799999999978  0.0625000000000000   F   F   F
  0.3750000000000000  0.3457799999999978  0.0625000000000000   F   F   F
  0.0008210289277361  0.2516012710021613  0.3902859620411709   T   T   T
  0.2508452710491442  0.2500701063974359  0.3904652337902753   T   T   T
  0.0003346110133863  0.0002458630372889  0.2644262122089239   T   T   T
  0.2496763658482683  0.0003938755754257  0.2645179380500073   T   T   T
  0.1260441692706879  0.4052364824240354  0.4412446796691168   T   T   T
  0.3759393540969286  0.4048656931242784  0.4414210671907194   T   T   T
  0.1249087725290700  0.1542104361282768  0.3132639555412417   T   T   T
  0.3755518614245775  0.1541340477731798  0.3132213799132703   T   T   T
  0.0007255229276895  0.2513620097894650  0.4848672152703610   T   T   T
  0.2503287318408307  0.2506145543542562  0.4852883348721983   T   T   T
  0.0006422322967887 -0.0001676582288096  0.3615972658967962   T   T   T
  0.2501577583930646 -0.0003629184080072  0.3595836592799041   T   T   T
  0.1263638515609451  0.0957948412981150  0.4388237349255477   T   T   T
  0.3757381870124853  0.0949354862997039  0.4403332540577025   T   T   T
  0.1252677451526972  0.3457074592351940  0.3132623951787505   T   T   T
  0.3755123868842724  0.3457083468039435  0.3132724261921646   T   T   T
  0.5000000000000000  0.2500000000000000  0.1396099999999976   F   F   F
  0.7500000000000000  0.2500000000000000  0.1396099999999976   F   F   F
  0.5000000000000000  0.0000000000000000  0.0146099999999976   F   F   F
  0.7500000000000000  0.0000000000000000  0.0146099999999976   F   F   F
  0.6250000000000000  0.4042200000000022  0.1875000000000000   F   F   F
  0.8750000000000000  0.4042200000000022  0.1875000000000000   F   F   F
  0.6250000000000000  0.1542200000000022  0.0625000000000000   F   F   F
  0.8750000000000000  0.1542200000000022  0.0625000000000000   F   F   F
  0.5000000000000000  0.2500000000000000  0.2353900000000024   F   F   F
  0.7500000000000000  0.2500000000000000  0.2353900000000024   F   F   F
  0.5000000000000000  0.0000000000000000  0.1103900000000024   F   F   F
  0.7500000000000000  0.0000000000000000  0.1103900000000024   F   F   F
  0.6250000000000000  0.0957799999999978  0.1875000000000000   F   F   F
  0.8750000000000000  0.0957799999999978  0.1875000000000000   F   F   F
  0.6250000000000000  0.3457799999999978  0.0625000000000000   F   F   F
  0.8750000000000000  0.3457799999999978  0.0625000000000000   F   F   F
  0.5007638024966340  0.2501097754317511  0.3905697068603951   T   T   T
  0.7508371432645278  0.2498342172377663  0.3903756973050821   T   T   T
  0.5003601744440922  0.0005369057735015  0.2642519044624468   T   T   T
  0.7509224968080999  0.0001621440073258  0.2645112866065825   T   T   T
  0.6256812862750644  0.4049334551042981  0.4412077693284490   T   T   T
  0.8754549209230094  0.4053100002685845  0.4415098046665599   T   T   T
  0.6253177408570622  0.1540973405800879  0.3130985136615736   T   T   T
  0.8760536432754984  0.1541680610306985  0.3130697450977473   T   T   T
  0.5006337585066010  0.2489026176267838  0.4855148094994237   T   T   T
  0.7511704882187473  0.2501405709253898  0.4851865473740480   T   T   T
  0.5005504137501949 -0.0022449914195742  0.3593873299480451   T   T   T
  0.7508611089538784 -0.0015510310613121  0.3595692050580584   T   T   T
  0.6261069031997177  0.0948210085721193  0.4407432419316229   T   T   T
  0.8758774239166018  0.0957994026072436  0.4385788681045122   T   T   T
  0.6251668304607477  0.3456543313261094  0.3131789609234054   T   T   T
  0.8754631296136199  0.3457392400541650  0.3131239624047490   T   T   T
  0.0000000000000000  0.7500000000000000  0.1396099999999976   F   F   F
  0.2500000000000000  0.7500000000000000  0.1396099999999976   F   F   F
  0.0000000000000000  0.5000000000000000  0.0146099999999976   F   F   F
  0.2500000000000000  0.5000000000000000  0.0146099999999976   F   F   F
  0.1250000000000000  0.9042200000000022  0.1875000000000000   F   F   F
  0.3750000000000000  0.9042200000000022  0.1875000000000000   F   F   F
  0.1250000000000000  0.6542200000000022  0.0625000000000000   F   F   F
  0.3750000000000000  0.6542200000000022  0.0625000000000000   F   F   F
  0.0000000000000000  0.7500000000000000  0.2353900000000024   F   F   F
  0.2500000000000000  0.7500000000000000  0.2353900000000024   F   F   F
  0.0000000000000000  0.5000000000000000  0.1103900000000024   F   F   F
  0.2500000000000000  0.5000000000000000  0.1103900000000024   F   F   F
  0.1250000000000000  0.5957799999999978  0.1875000000000000   F   F   F
  0.3750000000000000  0.5957799999999978  0.1875000000000000   F   F   F
  0.1250000000000000  0.8457799999999978  0.0625000000000000   F   F   F
  0.3750000000000000  0.8457799999999978  0.0625000000000000   F   F   F
  0.0008186749295666  0.7484022253345199  0.3903132136532461   T   T   T
  0.2507783895286458  0.7499157094035265  0.3904448757510192   T   T   T
  0.0002961313393062  0.4997985212091337  0.2643227411400690   T   T   T
  0.2502597964917866  0.4994425344486434  0.2643787628860565   T   T   T
  0.1263338894793899  0.9041872198867301  0.4390050000851768   T   T   T
  0.3755772685209035  0.9051464752240198  0.4403809946022775   T   T   T
  0.1252748802666834  0.6540720994680915  0.3133079744962114   T   T   T
  0.3755160098435342  0.6542495048251026  0.3132816154565684   T   T   T
  0.0007093721607655  0.7485541150397806  0.4849229119981424   T   T   T
  0.2503117281997681  0.7493655871678394  0.4853161928193304   T   T   T
  0.0001130729453179  0.4998277908581997  0.3599001037661648   T   T   T
  0.2505866332523002  0.5003741060656696  0.3598587685646579   T   T   T
  0.1260223828361020  0.5947702486953499  0.4411660227573201   T   T   T
  0.3759733060977219  0.5952405385272040  0.4413172253918978   T   T   T
  0.1248997838977381  0.8457331052611219  0.3131321884717849   T   T   T
  0.3754416448776390  0.8457800158839753  0.3129009683721625   T   T   T
  0.5000000000000000  0.7500000000000000  0.1396099999999976   F   F   F
  0.7500000000000000  0.7500000000000000  0.1396099999999976   F   F   F
  0.5000000000000000  0.5000000000000000  0.0146099999999976   F   F   F
  0.7500000000000000  0.5000000000000000  0.0146099999999976   F   F   F
  0.6250000000000000  0.9042200000000022  0.1875000000000000   F   F   F
  0.8750000000000000  0.9042200000000022  0.1875000000000000   F   F   F
  0.6250000000000000  0.6542200000000022  0.0625000000000000   F   F   F
  0.8750000000000000  0.6542200000000022  0.0625000000000000   F   F   F
  0.5000000000000000  0.7500000000000000  0.2353900000000024   F   F   F
  0.7500000000000000  0.7500000000000000  0.2353900000000024   F   F   F
  0.5000000000000000  0.5000000000000000  0.1103900000000024   F   F   F
  0.7500000000000000  0.5000000000000000  0.1103900000000024   F   F   F
  0.6250000000000000  0.5957799999999978  0.1875000000000000   F   F   F
  0.8750000000000000  0.5957799999999978  0.1875000000000000   F   F   F
  0.6250000000000000  0.8457799999999978  0.0625000000000000   F   F   F
  0.8750000000000000  0.8457799999999978  0.0625000000000000   F   F   F
  0.5007591157889086  0.7499166480953614  0.3905629587462912   T   T   T
  0.7508277806275195  0.7501366143166737  0.3903924082099080   T   T   T
  0.5001895874591613  0.5001252287385360  0.2642426345316362   T   T   T
  0.7502074671462643  0.5005124725405450  0.2643294960449076   T   T   T
  0.6260826011462008  0.9052823797944027  0.4408104889350993   T   T   T
  0.8758877855267707  0.9044263825709442  0.4386531256665714   T   T   T
  0.6251743128987626  0.6543339742994221  0.3132321150445570   T   T   T
  0.8754652079524894  0.6541860879101231  0.3132121559001159   T   T   T
  0.5006765153596467  0.7510784107739523  0.4855114384173455   T   T   T
  0.7511311994553319  0.7498409062530851  0.4851900727845278   T   T   T
  0.5003086339013251  0.4997961523245842  0.3597314978865929   T   T   T
  0.7501846004950872  0.4987594235660786  0.3598481978073026   T   T   T
  0.6257348967885112  0.5952337536290369  0.4411714828686318   T   T   T
  0.8754120410330751  0.5948600315143715  0.4415303880980605   T   T   T
  0.6254454874072846  0.8458096483689805  0.3128936616024110   T   T   T
  0.8760577491522208  0.8457153333741737  0.3130350737034996   T   T   T
  0.0005477688545557  0.0004117483928961  0.5124457241002056   T   T   T
 
  0.00000000E+00  0.00000000E+00  0.00000000E+00
  0.00000000E+00  0.00000000E+00  0.00000000E+00
  0.00000000E+00  0.00000000E+00  0.00000000E+00
  0.00000000E+00  0.00000000E+00  0.00000000E+00
  0.00000000E+00  0.00000000E+00  0.00000000E+00
  0.00000000E+00  0.00000000E+00  0.00000000E+00
  0.00000000E+00  0.00000000E+00  0.00000000E+00
  0.00000000E+00  0.00000000E+00  0.00000000E+00
  0.00000000E+00  0.00000000E+00  0.00000000E+00
  0.00000000E+00  0.00000000E+00  0.00000000E+00
  0.00000000E+00  0.00000000E+00  0.00000000E+00
  0.00000000E+00  0.00000000E+00  0.00000000E+00
  0.00000000E+00  0.00000000E+00  0.00000000E+00
  0.00000000E+00  0.00000000E+00  0.00000000E+00
  0.00000000E+00  0.00000000E+00  0.00000000E+00
  0.00000000E+00  0.00000000E+00  0.00000000E+00
  0.00000000E+00  0.00000000E+00  0.00000000E+00
  0.00000000E+00  0.00000000E+00  0.00000000E+00
  0.00000000E+00  0.00000000E+00  0.00000000E+00
  0.00000000E+00  0.00000000E+00  0.00000000E+00
  0.00000000E+00  0.00000000E+00  0.00000000E+00
  0.00000000E+00  0.00000000E+00  0.00000000E+00
  0.00000000E+00  0.00000000E+00  0.00000000E+00
  0.00000000E+00  0.00000000E+00  0.00000000E+00
  0.00000000E+00  0.00000000E+00  0.00000000E+00
  0.00000000E+00  0.00000000E+00  0.00000000E+00
  0.00000000E+00  0.00000000E+00  0.00000000E+00
  0.00000000E+00  0.00000000E+00  0.00000000E+00
  0.00000000E+00  0.00000000E+00  0.00000000E+00
  0.00000000E+00  0.00000000E+00  0.00000000E+00
  0.00000000E+00  0.00000000E+00  0.00000000E+00
  0.00000000E+00  0.00000000E+00  0.00000000E+00
  0.00000000E+00  0.00000000E+00  0.00000000E+00
  0.00000000E+00  0.00000000E+00  0.00000000E+00
  0.00000000E+00  0.00000000E+00  0.00000000E+00
  0.00000000E+00  0.00000000E+00  0.00000000E+00
  0.00000000E+00  0.00000000E+00  0.00000000E+00
  0.00000000E+00  0.00000000E+00  0.00000000E+00
  0.00000000E+00  0.00000000E+00  0.00000000E+00
  0.00000000E+00  0.00000000E+00  0.00000000E+00
  0.00000000E+00  0.00000000E+00  0.00000000E+00
  0.00000000E+00  0.00000000E+00  0.00000000E+00
  0.00000000E+00  0.00000000E+00  0.00000000E+00
  0.00000000E+00  0.00000000E+00  0.00000000E+00
  0.00000000E+00  0.00000000E+00  0.00000000E+00
  0.00000000E+00  0.00000000E+00  0.00000000E+00
  0.00000000E+00  0.00000000E+00  0.00000000E+00
  0.00000000E+00  0.00000000E+00  0.00000000E+00
  0.00000000E+00  0.00000000E+00  0.00000000E+00
  0.00000000E+00  0.00000000E+00  0.00000000E+00
  0.00000000E+00  0.00000000E+00  0.00000000E+00
  0.00000000E+00  0.00000000E+00  0.00000000E+00
  0.00000000E+00  0.00000000E+00  0.00000000E+00
  0.00000000E+00  0.00000000E+00  0.00000000E+00
  0.00000000E+00  0.00000000E+00  0.00000000E+00
  0.00000000E+00  0.00000000E+00  0.00000000E+00
  0.00000000E+00  0.00000000E+00  0.00000000E+00
  0.00000000E+00  0.00000000E+00  0.00000000E+00
  0.00000000E+00  0.00000000E+00  0.00000000E+00
  0.00000000E+00  0.00000000E+00  0.00000000E+00
  0.00000000E+00  0.00000000E+00  0.00000000E+00
  0.00000000E+00  0.00000000E+00  0.00000000E+00
  0.00000000E+00  0.00000000E+00  0.00000000E+00
  0.00000000E+00  0.00000000E+00  0.00000000E+00
  0.00000000E+00  0.00000000E+00  0.00000000E+00
  0.00000000E+00  0.00000000E+00  0.00000000E+00
  0.00000000E+00  0.00000000E+00  0.00000000E+00
  0.00000000E+00  0.00000000E+00  0.00000000E+00
  0.00000000E+00  0.00000000E+00  0.00000000E+00
  0.00000000E+00  0.00000000E+00  0.00000000E+00
  0.00000000E+00  0.00000000E+00  0.00000000E+00
  0.00000000E+00  0.00000000E+00  0.00000000E+00
  0.00000000E+00  0.00000000E+00  0.00000000E+00
  0.00000000E+00  0.00000000E+00  0.00000000E+00
  0.00000000E+00  0.00000000E+00  0.00000000E+00
  0.00000000E+00  0.00000000E+00  0.00000000E+00
  0.00000000E+00  0.00000000E+00  0.00000000E+00
  0.00000000E+00  0.00000000E+00  0.00000000E+00
  0.00000000E+00  0.00000000E+00  0.00000000E+00
  0.00000000E+00  0.00000000E+00  0.00000000E+00
  0.00000000E+00  0.00000000E+00  0.00000000E+00
  0.00000000E+00  0.00000000E+00  0.00000000E+00
  0.00000000E+00  0.00000000E+00  0.00000000E+00
  0.00000000E+00  0.00000000E+00  0.00000000E+00
  0.00000000E+00  0.00000000E+00  0.00000000E+00
  0.00000000E+00  0.00000000E+00  0.00000000E+00
  0.00000000E+00  0.00000000E+00  0.00000000E+00
  0.00000000E+00  0.00000000E+00  0.00000000E+00
  0.00000000E+00  0.00000000E+00  0.00000000E+00
  0.00000000E+00  0.00000000E+00  0.00000000E+00
  0.00000000E+00  0.00000000E+00  0.00000000E+00
  0.00000000E+00  0.00000000E+00  0.00000000E+00
  0.00000000E+00  0.00000000E+00  0.00000000E+00
  0.00000000E+00  0.00000000E+00  0.00000000E+00
  0.00000000E+00  0.00000000E+00  0.00000000E+00
  0.00000000E+00  0.00000000E+00  0.00000000E+00
  0.00000000E+00  0.00000000E+00  0.00000000E+00
  0.00000000E+00  0.00000000E+00  0.00000000E+00
  0.00000000E+00  0.00000000E+00  0.00000000E+00
  0.00000000E+00  0.00000000E+00  0.00000000E+00
  0.00000000E+00  0.00000000E+00  0.00000000E+00
  0.00000000E+00  0.00000000E+00  0.00000000E+00
  0.00000000E+00  0.00000000E+00  0.00000000E+00
  0.00000000E+00  0.00000000E+00  0.00000000E+00
  0.00000000E+00  0.00000000E+00  0.00000000E+00
  0.00000000E+00  0.00000000E+00  0.00000000E+00
  0.00000000E+00  0.00000000E+00  0.00000000E+00
  0.00000000E+00  0.00000000E+00  0.00000000E+00
  0.00000000E+00  0.00000000E+00  0.00000000E+00
  0.00000000E+00  0.00000000E+00  0.00000000E+00
  0.00000000E+00  0.00000000E+00  0.00000000E+00
  0.00000000E+00  0.00000000E+00  0.00000000E+00
  0.00000000E+00  0.00000000E+00  0.00000000E+00
  0.00000000E+00  0.00000000E+00  0.00000000E+00
  0.00000000E+00  0.00000000E+00  0.00000000E+00
  0.00000000E+00  0.00000000E+00  0.00000000E+00
  0.00000000E+00  0.00000000E+00  0.00000000E+00
  0.00000000E+00  0.00000000E+00  0.00000000E+00
  0.00000000E+00  0.00000000E+00  0.00000000E+00
  0.00000000E+00  0.00000000E+00  0.00000000E+00
  0.00000000E+00  0.00000000E+00  0.00000000E+00
  0.00000000E+00  0.00000000E+00  0.00000000E+00
  0.00000000E+00  0.00000000E+00  0.00000000E+00
  0.00000000E+00  0.00000000E+00  0.00000000E+00
  0.00000000E+00  0.00000000E+00  0.00000000E+00
  0.00000000E+00  0.00000000E+00  0.00000000E+00
  0.00000000E+00  0.00000000E+00  0.00000000E+00
  0.00000000E+00  0.00000000E+00  0.00000000E+00
  0.00000000E+00  0.00000000E+00  0.00000000E+00
  0.00000000E+00  0.00000000E+00  0.00000000E+00
  0.00000000E+00  0.00000000E+00  0.00000000E+00
  0.00000000E+00  0.00000000E+00  0.00000000E+00
  0.00000000E+00  0.00000000E+00  0.00000000E+00
  0.00000000E+00  0.00000000E+00  0.00000000E+00
  0.00000000E+00  0.00000000E+00  0.00000000E+00
  0.00000000E+00  0.00000000E+00  0.00000000E+00
  0.00000000E+00  0.00000000E+00  0.00000000E+00
  0.00000000E+00  0.00000000E+00  0.00000000E+00
  0.00000000E+00  0.00000000E+00  0.00000000E+00
  0.00000000E+00  0.00000000E+00  0.00000000E+00
  0.00000000E+00  0.00000000E+00  0.00000000E+00
  0.00000000E+00  0.00000000E+00  0.00000000E+00
  0.00000000E+00  0.00000000E+00  0.00000000E+00
  0.00000000E+00  0.00000000E+00  0.00000000E+00
  0.00000000E+00  0.00000000E+00  0.00000000E+00
  0.00000000E+00  0.00000000E+00  0.00000000E+00
  0.00000000E+00  0.00000000E+00  0.00000000E+00
  0.00000000E+00  0.00000000E+00  0.00000000E+00
  0.00000000E+00  0.00000000E+00  0.00000000E+00
  0.00000000E+00  0.00000000E+00  0.00000000E+00
  0.00000000E+00  0.00000000E+00  0.00000000E+00
  0.00000000E+00  0.00000000E+00  0.00000000E+00
  0.00000000E+00  0.00000000E+00  0.00000000E+00
  0.00000000E+00  0.00000000E+00  0.00000000E+00
  0.00000000E+00  0.00000000E+00  0.00000000E+00
  0.00000000E+00  0.00000000E+00  0.00000000E+00
  0.00000000E+00  0.00000000E+00  0.00000000E+00
  0.00000000E+00  0.00000000E+00  0.00000000E+00
  0.00000000E+00  0.00000000E+00  0.00000000E+00
  0.00000000E+00  0.00000000E+00  0.00000000E+00
  0.00000000E+00  0.00000000E+00  0.00000000E+00
  0.00000000E+00  0.00000000E+00  0.00000000E+00
  0.00000000E+00  0.00000000E+00  0.00000000E+00
  0.00000000E+00  0.00000000E+00  0.00000000E+00
  0.00000000E+00  0.00000000E+00  0.00000000E+00
  0.00000000E+00  0.00000000E+00  0.00000000E+00
  0.00000000E+00  0.00000000E+00  0.00000000E+00
  0.00000000E+00  0.00000000E+00  0.00000000E+00
  0.00000000E+00  0.00000000E+00  0.00000000E+00
  0.00000000E+00  0.00000000E+00  0.00000000E+00
  0.00000000E+00  0.00000000E+00  0.00000000E+00
  0.00000000E+00  0.00000000E+00  0.00000000E+00
  0.00000000E+00  0.00000000E+00  0.00000000E+00
  0.00000000E+00  0.00000000E+00  0.00000000E+00
  0.00000000E+00  0.00000000E+00  0.00000000E+00
  0.00000000E+00  0.00000000E+00  0.00000000E+00
  0.00000000E+00  0.00000000E+00  0.00000000E+00
  0.00000000E+00  0.00000000E+00  0.00000000E+00
  0.00000000E+00  0.00000000E+00  0.00000000E+00
  0.00000000E+00  0.00000000E+00  0.00000000E+00
  0.00000000E+00  0.00000000E+00  0.00000000E+00
  0.00000000E+00  0.00000000E+00  0.00000000E+00
  0.00000000E+00  0.00000000E+00  0.00000000E+00
  0.00000000E+00  0.00000000E+00  0.00000000E+00
  0.00000000E+00  0.00000000E+00  0.00000000E+00
  0.00000000E+00  0.00000000E+00  0.00000000E+00
  0.00000000E+00  0.00000000E+00  0.00000000E+00
  0.00000000E+00  0.00000000E+00  0.00000000E+00
  0.00000000E+00  0.00000000E+00  0.00000000E+00
  0.00000000E+00  0.00000000E+00  0.00000000E+00
  0.00000000E+00  0.00000000E+00  0.00000000E+00
  0.00000000E+00  0.00000000E+00  0.00000000E+00
  0.00000000E+00  0.00000000E+00  0.00000000E+00
