Ir64 O129
1.0
12.808532 0.000000 0.000000
0.000000 12.940486 0.000000
0.000000 0.000000 25.880972
Ir O
64 129
Selective dynamics
direct
0.125000 0.250000 0.187500 F F F Ir
0.375000 0.250000 0.187500 F F F Ir
0.125000 0.000000 0.062500 F F F Ir
0.375000 0.000000 0.062500 F F F Ir
0.000000 0.250000 0.062500 F F F Ir
0.250000 0.250000 0.062500 F F F Ir
0.000000 0.000000 0.187500 F F F Ir
0.250000 0.000000 0.187500 F F F Ir
0.124991 0.250000 0.439296 T T T Ir
0.375008 0.250000 0.439295 T T T Ir
0.124984 1.000000 0.312000 T T T Ir
0.375015 1.000000 0.312001 T T T Ir
0.000012 0.249995 0.313176 T T T Ir
0.250000 0.249992 0.313172 T T T Ir
1.000000 0.000000 0.435142 T T T Ir
0.249999 0.000000 0.435179 T T T Ir
0.625000 0.250000 0.187500 F F F Ir
0.875000 0.250000 0.187500 F F F Ir
0.625000 0.000000 0.062500 F F F Ir
0.875000 0.000000 0.062500 F F F Ir
0.500000 0.250000 0.062500 F F F Ir
0.750000 0.250000 0.062500 F F F Ir
0.500000 0.000000 0.187500 F F F Ir
0.750000 0.000000 0.187500 F F F Ir
0.624991 0.249999 0.439294 T T T Ir
0.875009 0.250000 0.439296 T T T Ir
0.624982 0.999992 0.312000 T T T Ir
0.875022 0.999999 0.311998 T T T Ir
0.499997 0.249987 0.313176 T T T Ir
0.750003 0.249998 0.313170 T T T Ir
0.500000 0.000000 0.435143 T T T Ir
0.750000 0.000000 0.435178 T T T Ir
0.125000 0.750000 0.187500 F F F Ir
0.375000 0.750000 0.187500 F F F Ir
0.125000 0.500000 0.062500 F F F Ir
0.375000 0.500000 0.062500 F F F Ir
0.000000 0.750000 0.062500 F F F Ir
0.250000 0.750000 0.062500 F F F Ir
0.000000 0.500000 0.187500 F F F Ir
0.250000 0.500000 0.187500 F F F Ir
0.124994 0.750001 0.439296 T T T Ir
0.375006 0.750001 0.439295 T T T Ir
0.124979 0.500001 0.311997 T T T Ir
0.375022 0.500001 0.311997 T T T Ir
0.000009 0.750005 0.313175 T T T Ir
0.249999 0.750008 0.313171 T T T Ir
0.000001 0.500000 0.435143 T T T Ir
0.250000 0.500000 0.435177 T T T Ir
0.625000 0.750000 0.187500 F F F Ir
0.875000 0.750000 0.187500 F F F Ir
0.625000 0.500000 0.062500 F F F Ir
0.875000 0.500000 0.062500 F F F Ir
0.500000 0.750000 0.062500 F F F Ir
0.750000 0.750000 0.062500 F F F Ir
0.500000 0.500000 0.187500 F F F Ir
0.750000 0.500000 0.187500 F F F Ir
0.624992 0.750001 0.439294 T T T Ir
0.875008 0.750001 0.439295 T T T Ir
0.624976 0.500001 0.311999 T T T Ir
0.875024 0.500001 0.311999 T T T Ir
0.499992 0.750006 0.313175 T T T Ir
0.750000 0.749999 0.313168 T T T Ir
0.499999 0.500000 0.435142 T T T Ir
0.750000 0.500000 0.435180 T T T Ir
0.000000 0.250000 0.139610 F F F O
0.250000 0.250000 0.139610 F F F O
0.000000 0.000000 0.014610 F F F O
0.250000 0.000000 0.014610 F F F O
0.125000 0.404220 0.187500 F F F O
0.375000 0.404220 0.187500 F F F O
0.125000 0.154220 0.062500 F F F O
0.375000 0.154220 0.062500 F F F O
0.000000 0.250000 0.235390 F F F O
0.250000 0.250000 0.235390 F F F O
0.000000 0.000000 0.110390 F F F O
0.250000 0.000000 0.110390 F F F O
0.125000 0.095780 0.187500 F F F O
0.375000 0.095780 0.187500 F F F O
0.125000 0.345780 0.062500 F F F O
0.375000 0.345780 0.062500 F F F O
0.000000 0.250000 0.390240 T T T O
0.249999 0.250003 0.390302 T T T O
0.999999 0.000001 0.264229 T T T O
0.250000 0.000000 0.264214 T T T O
0.125088 0.404951 0.440621 T T T O
0.374912 0.404951 0.440621 T T T O
0.124846 0.154280 0.312933 T T T O
0.375154 0.154279 0.312932 T T T O
0.999999 0.249999 0.485108 T T T O
0.250000 0.249998 0.485218 T T T O
0.999995 0.000001 0.359429 T T T O
0.249999 0.999999 0.359529 T T T O
0.125087 0.095050 0.440623 T T T O
0.374912 0.095049 0.440625 T T T O
0.124836 0.345714 0.312915 T T T O
0.375165 0.345714 0.312915 T T T O
0.500000 0.250000 0.139610 F F F O
0.750000 0.250000 0.139610 F F F O
0.500000 0.000000 0.014610 F F F O
0.750000 0.000000 0.014610 F F F O
0.625000 0.404220 0.187500 F F F O
0.875000 0.404220 0.187500 F F F O
0.625000 0.154220 0.062500 F F F O
0.875000 0.154220 0.062500 F F F O
0.500000 0.250000 0.235390 F F F O
0.750000 0.250000 0.235390 F F F O
0.500000 0.000000 0.110390 F F F O
0.750000 0.000000 0.110390 F F F O
0.625000 0.095780 0.187500 F F F O
0.875000 0.095780 0.187500 F F F O
0.625000 0.345780 0.062500 F F F O
0.875000 0.345780 0.062500 F F F O
0.499999 0.250001 0.390240 T T T O
0.750001 0.250000 0.390300 T T T O
0.500001 0.000002 0.264230 T T T O
0.750000 0.000002 0.264213 T T T O
0.625088 0.404955 0.440625 T T T O
0.874911 0.404955 0.440627 T T T O
0.624849 0.154279 0.312932 T T T O
0.875163 0.154290 0.312915 T T T O
0.500001 0.249998 0.485106 T T T O
0.750000 0.249999 0.485216 T T T O
0.500004 0.000000 0.359430 T T T O
0.750001 0.000002 0.359526 T T T O
0.625089 0.095047 0.440624 T T T O
0.874911 0.095048 0.440622 T T T O
0.624836 0.345713 0.312914 T T T O
0.875162 0.345718 0.312914 T T T O
0.000000 0.750000 0.139610 F F F O
0.250000 0.750000 0.139610 F F F O
0.000000 0.500000 0.014610 F F F O
0.250000 0.500000 0.014610 F F F O
0.125000 0.904220 0.187500 F F F O
0.375000 0.904220 0.187500 F F F O
0.125000 0.654220 0.062500 F F F O
0.375000 0.654220 0.062500 F F F O
0.000000 0.750000 0.235390 F F F O
0.250000 0.750000 0.235390 F F F O
0.000000 0.500000 0.110390 F F F O
0.250000 0.500000 0.110390 F F F O
0.125000 0.595780 0.187500 F F F O
0.375000 0.595780 0.187500 F F F O
0.125000 0.845780 0.062500 F F F O
0.375000 0.845780 0.062500 F F F O
0.000001 0.750000 0.390242 T T T O
0.249999 0.749998 0.390302 T T T O
0.999999 0.500000 0.264230 T T T O
0.250000 0.500000 0.264212 T T T O
0.125087 0.904951 0.440624 T T T O
0.374912 0.904952 0.440626 T T T O
0.124836 0.654288 0.312916 T T T O
0.375165 0.654289 0.312915 T T T O
0.000001 0.750001 0.485110 T T T O
0.250000 0.750003 0.485220 T T T O
0.999999 0.500000 0.359429 T T T O
0.250001 0.500001 0.359526 T T T O
0.125088 0.595049 0.440621 T T T O
0.374912 0.595049 0.440620 T T T O
0.124845 0.845719 0.312932 T T T O
0.375154 0.845720 0.312932 T T T O
0.500000 0.750000 0.139610 F F F O
0.750000 0.750000 0.139610 F F F O
0.500000 0.500000 0.014610 F F F O
0.750000 0.500000 0.014610 F F F O
0.625000 0.904220 0.187500 F F F O
0.875000 0.904220 0.187500 F F F O
0.625000 0.654220 0.062500 F F F O
0.875000 0.654220 0.062500 F F F O
0.500000 0.750000 0.235390 F F F O
0.750000 0.750000 0.235390 F F F O
0.500000 0.500000 0.110390 F F F O
0.750000 0.500000 0.110390 F F F O
0.625000 0.595780 0.187500 F F F O
0.875000 0.595780 0.187500 F F F O
0.625000 0.845780 0.062500 F F F O
0.875000 0.845780 0.062500 F F F O
0.499998 0.750000 0.390240 T T T O
0.750001 0.750001 0.390299 T T T O
0.500001 0.499999 0.264229 T T T O
0.750000 0.499998 0.264215 T T T O
0.625089 0.904953 0.440624 T T T O
0.874912 0.904952 0.440623 T T T O
0.624837 0.654286 0.312915 T T T O
0.875162 0.654285 0.312916 T T T O
0.499999 0.750002 0.485109 T T T O
0.750000 0.750001 0.485217 T T T O
0.500001 0.499999 0.359428 T T T O
0.749998 0.499997 0.359526 T T T O
0.625087 0.595045 0.440625 T T T O
0.874912 0.595045 0.440627 T T T O
0.624837 0.845710 0.312915 T T T O
0.875162 0.845709 0.312915 T T T O
0.124999 0.249998 0.516074 T T T O
