Ir  O Ir  O
 1.0000000000000000
  12.8085319999999996   0.0000000000000000   0.0000000000000000
   0.0000000000000000   6.4702430000000000   0.0000000000000000
   0.0000000000000000   0.0000000000000000  25.8809719999999999
Ir  O Ir  O
16  34  16  34  
Selective dynamics
Direct
  0.1250000000000000  0.5000000000000000  0.1875000000000000 F F F
  0.3750000000000000  0.5000000000000000  0.1875000000000000 F F F
  0.1250000000000000  0.0000000000000000  0.0625000000000000 F F F
  0.3750000000000000  0.0000000000000000  0.0625000000000000 F F F
  0.0000000000000000  0.5000000000000000  0.0625000000000000 F F F
  0.2500000000000000  0.5000000000000000  0.0625000000000000 F F F
  0.0000000000000000  0.0000000000000000  0.1875000000000000 F F F
  0.2500000000000000  0.0000000000000000  0.1875000000000000 F F F
  0.1250216938773860  0.5000000000000000  0.4382154743402960 T T T
  0.3750443392318350  0.5000000000000000  0.4387823338161850 T T T
  0.1248907310078880  0.0000000000000000  0.3133257816770080 T T T
  0.3734479969653250  0.0000000000000000  0.3125607579323320 T T T
  0.0001841479000859  0.5000000000000000  0.3130587104002490 T T T
  0.2497474971560790  0.5000000000000000  0.3130664770451190 T T T
  0.9988143781996111  0.0000000000000000  0.4425629333348480 T T T
  0.2509821544554640  0.0000000000000000  0.4426183014823690 T T T
  0.0000000000000000  0.5000000000000000  0.1396099999999980 F F F
  0.2500000000000000  0.5000000000000000  0.1396099999999980 F F F
  0.0000000000000000  0.0000000000000000  0.0146099999999976 F F F
  0.2500000000000000  0.0000000000000000  0.0146099999999976 F F F
  0.1250000000000000  0.8084399999999970  0.1875000000000000 F F F
  0.3750000000000000  0.8084399999999970  0.1875000000000000 F F F
  0.1250000000000000  0.3084399999999970  0.0625000000000000 F F F
  0.3750000000000000  0.3084399999999970  0.0625000000000000 F F F
  0.0000000000000000  0.5000000000000000  0.2353900000000020 F F F
  0.2500000000000000  0.5000000000000000  0.2353900000000020 F F F
  0.0000000000000000  0.0000000000000000  0.1103900000000020 F F F
  0.2500000000000000  0.0000000000000000  0.1103900000000020 F F F
  0.1250000000000000  0.1915600000000030  0.1875000000000000 F F F
  0.3750000000000000  0.1915600000000030  0.1875000000000000 F F F
  0.1250000000000000  0.6915600000000030  0.0625000000000000 F F F
  0.3750000000000000  0.6915600000000030  0.0625000000000000 F F F
  0.9999292104190260  0.5000000000000000  0.3899150485458020 T T T
  0.2501892196507210  0.5000000000000000  0.3898659962075120 T T T
  0.0006895981821629  0.0000000000000000  0.2647451984989430 T T T
  0.2491561440289940  0.0000000000000000  0.2647551930406640 T T T
  0.1248237037453850  0.8093487946160420  0.4364356527294720 T T T
  0.3773845563988440  0.8086824693608961  0.4400700606843560 T T T
  0.1248065342421470  0.3075838757293990  0.3130065767899670 T T T
  0.3744855785342480  0.3078839266224160  0.3124739979556920 T T T
  0.0003551708532754  0.5000000000000000  0.4839470336701620 T T T
  0.2497290294855430  0.5000000000000000  0.4840640889603450 T T T
  0.9994219910348360  0.0000000000000000  0.3614932985524820 T T T
  0.2503487732261220  0.0000000000000000  0.3615713748552030 T T T
  0.1248237037453850  0.1906512053839580  0.4364356527294720 T T T
  0.3773845563988440  0.1913175306390970  0.4400700606843560 T T T
  0.1248065342421470  0.6924161242706010  0.3130065767899670 T T T
  0.3744855785342480  0.6921160733775690  0.3124739979556920 T T T
  0.2473934707400720  0.0000000000000000  0.5119751025984410 T T T
  0.0034836831661735  0.0000000000000000  0.5119036693987200 T T T
  0.6250000000000000  0.5000000000000000  0.1875000000000000 F F F
  0.8750000000000000  0.5000000000000000  0.1875000000000000 F F F
  0.6250000000000000  0.0000000000000000  0.0625000000000000 F F F
  0.8750000000000000  0.0000000000000000  0.0625000000000000 F F F
  0.5000000000000000  0.5000000000000000  0.0625000000000000 F F F
  0.7500000000000000  0.5000000000000000  0.0625000000000000 F F F
  0.5000000000000000  0.0000000000000000  0.1875000000000000 F F F
  0.7500000000000000  0.0000000000000000  0.1875000000000000 F F F
  0.6249190826828510  0.5000000000000000  0.4369001319098160 T T T
  0.8749026533385940  0.5000000000000000  0.4388003181321810 T T T
  0.6248497078789160  0.0000000000000000  0.3125628743869480 T T T
  0.8764085552868220  0.0000000000000000  0.3125192550762460 T T T
  0.4995373641339430  0.5000000000000000  0.3127206504210560 T T T
  0.7502869143750320  0.5000000000000000  0.3127137152686710 T T T
  0.5038447846957870  0.0000000000000000  0.4370349033071080 T T T
  0.7459110112362380  0.0000000000000000  0.4369569101315070 T T T
  0.5000000000000000  0.5000000000000000  0.1396099999999980 F F F
  0.7500000000000000  0.5000000000000000  0.1396099999999980 F F F
  0.5000000000000000  0.0000000000000000  0.0146099999999976 F F F
  0.7500000000000000  0.0000000000000000  0.0146099999999976 F F F
  0.6250000000000000  0.8084399999999970  0.1875000000000000 F F F
  0.8750000000000000  0.8084399999999970  0.1875000000000000 F F F
  0.6250000000000000  0.3084399999999970  0.0625000000000000 F F F
  0.8750000000000000  0.3084399999999970  0.0625000000000000 F F F
  0.5000000000000000  0.5000000000000000  0.2353900000000020 F F F
  0.7500000000000000  0.5000000000000000  0.2353900000000020 F F F
  0.5000000000000000  0.0000000000000000  0.1103900000000020 F F F
  0.7500000000000000  0.0000000000000000  0.1103900000000020 F F F
  0.6250000000000000  0.1915600000000030  0.1875000000000000 F F F
  0.8750000000000000  0.1915600000000030  0.1875000000000000 F F F
  0.6250000000000000  0.6915600000000030  0.0625000000000000 F F F
  0.8750000000000000  0.6915600000000030  0.0625000000000000 F F F
  0.4987023200715800  0.5000000000000000  0.3892832524798420 T T T
  0.7512395071612300  0.5000000000000000  0.3892901739412760 T T T
  0.4998034704445900  0.0000000000000000  0.2647360030866180 T T T
  0.7500250708265450  0.0000000000000000  0.2646666369148960 T T T
  0.6247615210929210  0.8058151114190300  0.4328792758806800 T T T
  0.8725290711810560  0.8089327350080850  0.4402287673294510 T T T
  0.6247505435849590  0.3082990548228470  0.3124431319245460 T T T
  0.8756046689141000  0.3078866433613570  0.3123790005416180 T T T
  0.5016317899076700  0.5000000000000000  0.4835647746239220 T T T
  0.7480936248232840  0.5000000000000000  0.4835774100430330 T T T
  0.4970911751079470  0.0000000000000000  0.3599001505174190 T T T
  0.7524820112978010  0.0000000000000000  0.3598598166978060 T T T
  0.6247615210929210  0.1941848885809700  0.4328792758806800 T T T
  0.8725290711810560  0.1910672649919150  0.4402287673294510 T T T
  0.6247505435849590  0.6917009451771390  0.3124431319245460 T T T
  0.8756046689141000  0.6921133566386430  0.3123790005416180 T T T
  0.6774523330582480  0.0000000000000000  0.5867462788660380 T T T
  0.5728329808781750  0.0000000000000000  0.5867685784505950 T T T
