Ir  O Ir  O 
 1.0000000000000000
    12.8085319999999996    0.0000000000000000    0.0000000000000000
     0.0000000000000000    6.4702430000000000    0.0000000000000000
     0.0000000000000000    0.0000000000000000   25.8809719999999999
  16  34  16  34
Selective dynamics
Cartesian
  1.6010664999999999  3.2351215000000000  4.8526822500000000   F   F   F
  4.8031994999999998  3.2351215000000000  4.8526822500000000   F   F   F
  1.6010664999999999  0.0000000000000000  1.6175607500000000   F   F   F
  4.8031994999999998  0.0000000000000000  1.6175607500000000   F   F   F
  0.0000000000000000  3.2351215000000000  1.6175607500000000   F   F   F
  3.2021329999999999  3.2351215000000000  1.6175607500000000   F   F   F
  0.0000000000000000  0.0000000000000000  4.8526822500000000   F   F   F
  3.2021329999999999  0.0000000000000000  4.8526822500000000   F   F   F
  1.6002600840747638  3.2351215000000000 11.3365159949165228   T   T   T
  4.8047059080938928  3.2351215000000000 11.3395645971122256   T   T   T
  1.6005772938963923  0.0000000000000000  8.0969778824757324   T   T   T
  4.8002711104267188  0.0000000000000000  8.0931717989101202   T   T   T
  0.0005669926889903  3.2351215000000000  8.0991616008287650   T   T   T
  3.2015348870461855  3.2351215000000000  8.0983802435501957   T   T   T
 -0.0002415331412646  0.0000000000000000 11.4188733532057949   T   T   T
  3.2058429663736838  0.0000000000000000 11.4265607686278194   T   T   T
  0.0000000000000000  3.2351215000000000  3.6132425009199376   F   F   F
  3.2021329999999999  3.2351215000000000  3.6132425009199376   F   F   F
  0.0000000000000000  0.0000000000000000  0.3781210009199379   F   F   F
  3.2021329999999999  0.0000000000000000  0.3781210009199379   F   F   F
  1.6010664999999999  5.2308032509199833  4.8526822500000000   F   F   F
  4.8031994999999998  5.2308032509199833  4.8526822500000000   F   F   F
  1.6010664999999999  1.9956817509199831  1.6175607500000000   F   F   F
  4.8031994999999998  1.9956817509199831  1.6175607500000000   F   F   F
  0.0000000000000000  3.2351215000000000  6.0921219990800619   F   F   F
  3.2021329999999999  3.2351215000000000  6.0921219990800619   F   F   F
  0.0000000000000000  0.0000000000000000  2.8570004990800624   F   F   F
  3.2021329999999999  0.0000000000000000  2.8570004990800624   F   F   F
  1.6010664999999999  1.2394397490800166  4.8526822500000000   F   F   F
  4.8031994999999998  1.2394397490800166  4.8526822500000000   F   F   F
  1.6010664999999999  4.4745612490800166  1.6175607500000000   F   F   F
  4.8031994999999998  4.4745612490800166  1.6175607500000000   F   F   F
 -0.0007270414985663  3.2351215000000000 10.0823107553694822   T   T   T
  3.2029582107803027  3.2351215000000000 10.0835838320603717   T   T   T
  0.0015799166858837  0.0000000000000000  6.8547878162883533   T   T   T
  3.1998217332744803  0.0000000000000000  6.8525846134428177   T   T   T
  1.6016262564292685  5.2329801015855830 11.2880727910334251   T   T   T
  4.8101219812714673  5.2320554430841684 11.3071765399818744   T   T   T
  1.5991118663222563  1.9903171336365220  8.0923364057471332   T   T   T
  4.8036590824881973  1.9904630991200709  8.0885688300410958   T   T   T
 -0.0045038982288393  3.2351215000000000 12.5162817072952635   T   T   T
  3.2013452217232015  3.2351215000000000 12.5143147469382257   T   T   T
 -0.0018472653552693  0.0000000000000000  9.3409821335766257   T   T   T
  3.2036336154407561  0.0000000000000000  9.3384107642217646   T   T   T
  1.6016262564292685  1.2372628984144183 11.2880727910334251   T   T   T
  4.8101219812714673  1.2381875569158307 11.3071765399818744   T   T   T
  1.5991118663222563  4.4799258663634776  8.0923364057471332   T   T   T
  4.8036590824881973  4.4797799008799295  8.0885688300410958   T   T   T
  3.1966231294628278  0.0000000000000000 13.2226062316308628   T   T   T
  0.0038832630076481  0.0000000000000000 13.2150046389190887   T   T   T
  8.0053324999999997  3.2351215000000000  4.8526822500000000   F   F   F
 11.2074654999999996  3.2351215000000000  4.8526822500000000   F   F   F
  8.0053324999999997  0.0000000000000000  1.6175607500000000   F   F   F
 11.2074654999999996  0.0000000000000000  1.6175607500000000   F   F   F
  6.4042659999999998  3.2351215000000000  1.6175607500000000   F   F   F
  9.6063989999999997  3.2351215000000000  1.6175607500000000   F   F   F
  6.4042659999999998  0.0000000000000000  4.8526822500000000   F   F   F
  9.6063989999999997  0.0000000000000000  4.8526822500000000   F   F   F
  8.0061196792563756  3.2351215000000000 11.3278010679255132   T   T   T
 11.2064541400042756  3.2351215000000000 11.3409026729358224   T   T   T
  8.0050633343197592  0.0000000000000000  8.0954189750044048   T   T   T
 11.2100124455787249  0.0000000000000000  8.0929534814700030   T   T   T
  6.4032675185960661  3.2351215000000000  8.0969861537489489   T   T   T
  9.6074738720436930  3.2351215000000000  8.0956292544207304   T   T   T
  6.4139305394133759  0.0000000000000000 11.3996030419301668   T   T   T
  9.5936254462279038  0.0000000000000000 11.4062793627115724   T   T   T
  6.4042659999999998  3.2351215000000000  3.6132425009199376   F   F   F
  9.6063989999999997  3.2351215000000000  3.6132425009199376   F   F   F
  6.4042659999999998  0.0000000000000000  0.3781210009199379   F   F   F
  9.6063989999999997  0.0000000000000000  0.3781210009199379   F   F   F
  8.0053324999999997  5.2308032509199833  4.8526822500000000   F   F   F
 11.2074654999999996  5.2308032509199833  4.8526822500000000   F   F   F
  8.0053324999999997  1.9956817509199831  1.6175607500000000   F   F   F
 11.2074654999999996  1.9956817509199831  1.6175607500000000   F   F   F
  6.4042659999999998  3.2351215000000000  6.0921219990800619   F   F   F
  9.6063989999999997  3.2351215000000000  6.0921219990800619   F   F   F
  6.4042659999999998  0.0000000000000000  2.8570004990800624   F   F   F
  9.6063989999999997  0.0000000000000000  2.8570004990800624   F   F   F
  8.0053324999999997  1.2394397490800166  4.8526822500000000   F   F   F
 11.2074654999999996  1.2394397490800166  4.8526822500000000   F   F   F
  8.0053324999999997  4.4745612490800166  1.6175607500000000   F   F   F
 11.2074654999999996  4.4745612490800166  1.6175607500000000   F   F   F
  6.4008852810343724  3.2351215000000000 10.0776257858870490   T   T   T
  9.6107771346210349  3.2351215000000000 10.0776084150915697   T   T   T
  6.4045066630927607  0.0000000000000000  6.8565355757021793   T   T   T
  9.6057153139163791  0.0000000000000000  6.8520099574789182   T   T   T
  8.0069198193370710  5.2253626113700449 11.2428447491048047   T   T   T
 11.1988315966741538  5.2309143245549352 11.2933310374347879   T   T   T
  8.0032706739134287  1.9906369193294420  8.0874935035125937   T   T   T
 11.2107424364390873  1.9902388791936847  8.0864047261535923   T   T   T
  6.4155293386000736  3.2351215000000000 12.5113663536834672   T   T   T
  9.6006407573414059  3.2351215000000000 12.5132253444119623   T   T   T
  6.3951222337891007  0.0000000000000000  9.3346872600497406   T   T   T
  9.6147767449177106  0.0000000000000000  9.3313473194476373   T   T   T
  8.0069198193370710  1.2448803886299551 11.2428447491048047   T   T   T
 11.1988315966741538  1.2393286754450654 11.2933310374347879   T   T   T
  8.0032706739134287  4.4796060806705595  8.0874935035125937   T   T   T
 11.2107424364390873  4.4800041208063153  8.0864047261535923   T   T   T
  9.4558339480291309  0.0000000000000000 13.2113379106774378   T   T   T
  6.5636241929767989  0.0000000000000000 13.2078758086512202   T   T   T
