Ir  O Ir  O 
 1.0000000000000000
    12.8085319999999996    0.0000000000000000    0.0000000000000000
     0.0000000000000000    6.4702430000000000    0.0000000000000000
     0.0000000000000000    0.0000000000000000   25.8809719999999999
  16  34  16  34
Selective dynamics
Cartesian
  1.6010664999999999  3.2351215000000000  4.8526822500000000   F   F   F
  4.8031994999999998  3.2351215000000000  4.8526822500000000   F   F   F
  1.6010664999999999  0.0000000000000000  1.6175607500000000   F   F   F
  4.8031994999999998  0.0000000000000000  1.6175607500000000   F   F   F
  0.0000000000000000  3.2351215000000000  1.6175607500000000   F   F   F
  3.2021329999999999  3.2351215000000000  1.6175607500000000   F   F   F
  0.0000000000000000  0.0000000000000000  4.8526822500000000   F   F   F
  3.2021329999999999  0.0000000000000000  4.8526822500000000   F   F   F
  1.5968976782601294  3.2589303702294057 11.3309347597938341   T   T   T
  4.7971528471271219  3.2566098145226885 11.3487314208809718   T   T   T
  1.5982439797352617  0.0023763892631032  8.1045845744520868   T   T   T
  4.7833585504852909  0.0049252061318929  8.0886676273988787   T   T   T
  0.0005916811271920  3.2379863152265496  8.0971033194254414   T   T   T
  3.2004159485007300  3.2398656518874343  8.0975925007036658   T   T   T
 -0.0063258966363671  0.0254516336001600 11.4465175351886437   T   T   T
  3.1971955680018471  0.0225509550712906 11.4435211504638374   T   T   T
  0.0000000000000000  3.2351215000000000  3.6132425009199376   F   F   F
  3.2021329999999999  3.2351215000000000  3.6132425009199376   F   F   F
  0.0000000000000000  0.0000000000000000  0.3781210009199379   F   F   F
  3.2021329999999999  0.0000000000000000  0.3781210009199379   F   F   F
  1.6010664999999999  5.2308032509199833  4.8526822500000000   F   F   F
  4.8031994999999998  5.2308032509199833  4.8526822500000000   F   F   F
  1.6010664999999999  1.9956817509199831  1.6175607500000000   F   F   F
  4.8031994999999998  1.9956817509199831  1.6175607500000000   F   F   F
  0.0000000000000000  3.2351215000000000  6.0921219990800619   F   F   F
  3.2021329999999999  3.2351215000000000  6.0921219990800619   F   F   F
  0.0000000000000000  0.0000000000000000  2.8570004990800624   F   F   F
  3.2021329999999999  0.0000000000000000  2.8570004990800624   F   F   F
  1.6010664999999999  1.2394397490800166  4.8526822500000000   F   F   F
  4.8031994999999998  1.2394397490800166  4.8526822500000000   F   F   F
  1.6010664999999999  4.4745612490800166  1.6175607500000000   F   F   F
  4.8031994999999998  4.4745612490800166  1.6175607500000000   F   F   F
 -0.0007130706034262  3.2560148970833063 10.0790831717468876   T   T   T
  3.2019227287355925  3.2521565308849194 10.0810035874333686   T   T   T
  0.0024779033626655  0.0013637684787382  6.8561657188505958   T   T   T
  3.1959160539344573  0.0041137660132642  6.8511597567788067   T   T   T
  1.5942602457420214  5.2574969484769216 11.3079395887700862   T   T   T
  4.8131621250516092  5.2535932405580059 11.3637099988555477   T   T   T
  1.5974322374622392  1.9934785793153045  8.0972322696669305   T   T   T
  4.8002082032235291  1.9987712554951331  8.0966535789952516   T   T   T
  0.0027514790641596  3.2581400354258445 12.5137837188545404   T   T   T
  3.1882083965120747  3.2551993316471179 12.5152572323836715   T   T   T
 -0.0066983565349397 -0.0038824492477479  9.3476187969675983   T   T   T
  3.2056051132726142  0.0000153002772142  9.3534778851851001   T   T   T
  1.5953593448587977  1.2603081889443670 11.2737563145794280   T   T   T
  4.8112037903310130  1.2608742304210507 11.3488805192882225   T   T   T
  1.5988060978444949  4.4832191037077749  8.0893879875554049   T   T   T
  4.8006000688033810  4.4817098773070008  8.0864890958357662   T   T   T
  3.1741040550457171  0.0408593174386660 13.2425744614278926   T   T   T
  0.0256577079940654  0.0618171146831290 13.2421323436081924   T   T   T
  8.0053324999999997  3.2351215000000000  4.8526822500000000   F   F   F
 11.2074654999999996  3.2351215000000000  4.8526822500000000   F   F   F
  8.0053324999999997  0.0000000000000000  1.6175607500000000   F   F   F
 11.2074654999999996  0.0000000000000000  1.6175607500000000   F   F   F
  6.4042659999999998  3.2351215000000000  1.6175607500000000   F   F   F
  9.6063989999999997  3.2351215000000000  1.6175607500000000   F   F   F
  6.4042659999999998  0.0000000000000000  4.8526822500000000   F   F   F
  9.6063989999999997  0.0000000000000000  4.8526822500000000   F   F   F
  8.0002073876209998  3.2632364912370329 11.3587849559759579   T   T   T
 11.2068106715116809  3.2638873453710118 11.3500600963337153   T   T   T
  8.0210808329238574  0.0042050289730142  8.0815352914140561   T   T   T
 11.2147301983149301 -0.0002427223447270  8.0938023560653818   T   T   T
  6.4035505418773635  3.2401974522789057  8.1016955201212308   T   T   T
  9.6088911380773165  3.2394701352373318  8.1033365103535306   T   T   T
  6.3985967049724373  0.0260011832771548 11.2425238840873671   T   T   T
  9.5914420440308721  0.0319711911845127 11.3749054820456372   T   T   T
  6.4042659999999998  3.2351215000000000  3.6132425009199376   F   F   F
  9.6063989999999997  3.2351215000000000  3.6132425009199376   F   F   F
  6.4042659999999998  0.0000000000000000  0.3781210009199379   F   F   F
  9.6063989999999997  0.0000000000000000  0.3781210009199379   F   F   F
  8.0053324999999997  5.2308032509199833  4.8526822500000000   F   F   F
 11.2074654999999996  5.2308032509199833  4.8526822500000000   F   F   F
  8.0053324999999997  1.9956817509199831  1.6175607500000000   F   F   F
 11.2074654999999996  1.9956817509199831  1.6175607500000000   F   F   F
  6.4042659999999998  3.2351215000000000  6.0921219990800619   F   F   F
  9.6063989999999997  3.2351215000000000  6.0921219990800619   F   F   F
  6.4042659999999998  0.0000000000000000  2.8570004990800624   F   F   F
  9.6063989999999997  0.0000000000000000  2.8570004990800624   F   F   F
  8.0053324999999997  1.2394397490800166  4.8526822500000000   F   F   F
 11.2074654999999996  1.2394397490800166  4.8526822500000000   F   F   F
  8.0053324999999997  4.4745612490800166  1.6175607500000000   F   F   F
 11.2074654999999996  4.4745612490800166  1.6175607500000000   F   F   F
  6.3995612465293190  3.2484329976297324 10.0916712323035629   T   T   T
  9.6072190957681620  3.2620235004862663 10.0963496944808728   T   T   T
  6.4024256178413266  0.0046585852416826  6.8477493059252588   T   T   T
  9.6105003886165239  0.0049274985102366  6.8452808322843230   T   T   T
  7.9910391133276146  5.2560864651903021 11.3691202784628960   T   T   T
 11.2009174608308424  5.2560585972116414 11.3659786824242239   T   T   T
  8.0072447623102221  1.9989320099825629  8.1018687732930399   T   T   T
 11.2104933134267668  1.9930723612001924  8.0932084082244984   T   T   T
  6.3960300025000540  3.2581301305046608 12.5414168197534632   T   T   T
  9.6064401124309473  3.2355207609657990 12.5412171060639928   T   T   T
  6.4068968908878192 -0.0096401922336507  9.2954404362324023   T   T   T
  9.6114132471033589 -0.0073432683924205  9.3200413420177917   T   T   T
  7.9803058982474573  1.2708870146849180 11.3542580964794286   T   T   T
 11.2036903921238817  1.2681993097530511 11.3194802310618758   T   T   T
  8.0060734471879336  4.4807496875698796  8.0888273862291378   T   T   T
 11.2113091682621935  4.4799680317539670  8.0845715646115934   T   T   T
  9.4887362046148436  0.1656509590546231 13.4036860429732148   T   T   T
  9.8457689536130228  5.6465157917934743 14.1409335805161103   T   T   T
