Ir  O Ir  O 
 1.0000000000000000
    12.8085319999999996    0.0000000000000000    0.0000000000000000
     0.0000000000000000    6.4702430000000000    0.0000000000000000
     0.0000000000000000    0.0000000000000000   25.8809719999999999
Ir  O Ir  O
  16  32  14  32
Selective dynamics
Cartesian
  1.6010664999999999  3.2351215000000000  4.8526822500000000   F   F   F
  4.8031994999999998  3.2351215000000000  4.8526822500000000   F   F   F
  1.6010664999999999  0.0000000000000000  1.6175607500000000   F   F   F
  4.8031994999999998  0.0000000000000000  1.6175607500000000   F   F   F
  0.0000000000000000  3.2351215000000000  1.6175607500000000   F   F   F
  3.2021329999999999  3.2351215000000000  1.6175607500000000   F   F   F
  0.0000000000000000  0.0000000000000000  4.8526822500000000   F   F   F
  3.2021329999999999  0.0000000000000000  4.8526822500000000   F   F   F
  1.6004526421975371  3.2351215000000000 11.3626024287006882   T   T   T
  4.8053327313479066  3.2351215000000000 11.3629400037083830   T   T   T
  1.5974951379724760  0.0000000000000000  8.0759070242272788   T   T   T
  4.8056380664922038  0.0000000000000000  8.0741068006171535   T   T   T
 12.8069752134181556  3.2351215000000000  8.1017624121387257   T   T   T
  3.2027741497014421  3.2351215000000000  8.1049203173067372   T   T   T
  0.0037045162826940  0.0000000000000000 11.2562509689893933   T   T   T
  3.2026343924875289  0.0000000000000000 11.2662378942686772   T   T   T
  0.0000000000000000  3.2351215000000000  3.6132425009199376   F   F   F
  3.2021329999999999  3.2351215000000000  3.6132425009199376   F   F   F
  0.0000000000000000  0.0000000000000000  0.3781210009199379   F   F   F
  3.2021329999999999  0.0000000000000000  0.3781210009199379   F   F   F
  1.6010664999999999  5.2308032509199833  4.8526822500000000   F   F   F
  4.8031994999999998  5.2308032509199833  4.8526822500000000   F   F   F
  1.6010664999999999  1.9956817509199831  1.6175607500000000   F   F   F
  4.8031994999999998  1.9956817509199831  1.6175607500000000   F   F   F
  0.0000000000000000  3.2351215000000000  6.0921219990800619   F   F   F
  3.2021329999999999  3.2351215000000000  6.0921219990800619   F   F   F
  0.0000000000000000  0.0000000000000000  2.8570004990800624   F   F   F
  3.2021329999999999  0.0000000000000000  2.8570004990800624   F   F   F
  1.6010664999999999  1.2394397490800166  4.8526822500000000   F   F   F
  4.8031994999999998  1.2394397490800166  4.8526822500000000   F   F   F
  1.6010664999999999  4.4745612490800166  1.6175607500000000   F   F   F
  4.8031994999999998  4.4745612490800166  1.6175607500000000   F   F   F
  0.0006092571422171  3.2351215000000000 10.0935546306553316   T   T   T
  3.2029803264979098  3.2351215000000000 10.0984609307898818   T   T   T
 12.8005393603947706  0.0000000000000000  6.8426072003824299   T   T   T
  3.1999999416087106  0.0000000000000000  6.8374957684879396   T   T   T
  1.6061973425844256  5.2409677977992084 11.4051194124847513   T   T   T
  4.8005685171511008  5.2407680713418587 11.4038513129303904   T   T   T
  1.5975892155071423  1.9948196549634889  8.0959510768596239   T   T   T
  4.8063424039961831  1.9954586549369533  8.0972410387546603   T   T   T
 12.8021795916816341  3.2351215000000000 12.5413758245206779   T   T   T
  3.2030923475678330  3.2351215000000000 12.5529287906361464   T   T   T
 12.8070361852830885  0.0000000000000000  9.3061286876346365   T   T   T
  3.2025943425923384  0.0000000000000000  9.3066872570391332   T   T   T
  1.6061973425844256  1.2292752022007911 11.4051194124847513   T   T   T
  4.8005685171511008  1.2294749286580957 11.4038513129303904   T   T   T
  1.5975892155071423  4.4754233450365115  8.0959510768596239   T   T   T
  4.8063424039961831  4.4747843450630489  8.0972410387546603   T   T   T
  8.0053324999999997  3.2351215000000000  4.8526822500000000   F   F   F
 11.2074654999999996  3.2351215000000000  4.8526822500000000   F   F   F
  8.0053324999999997  0.0000000000000000  1.6175607500000000   F   F   F
 11.2074654999999996  0.0000000000000000  1.6175607500000000   F   F   F
  6.4042659999999998  3.2351215000000000  1.6175607500000000   F   F   F
  9.6063989999999997  3.2351215000000000  1.6175607500000000   F   F   F
  6.4042659999999998  0.0000000000000000  4.8526822500000000   F   F   F
  9.6063989999999997  0.0000000000000000  4.8526822500000000   F   F   F
  8.0263615360179124  0.0000000000000000  8.0946392008643961   T   T   T
 11.1887514386673192  0.0000000000000000  8.0960368462811569   T   T   T
  6.4067642685700905  3.2351215000000000  8.1026002323848267   T   T   T
  9.6069847961768353  3.2351215000000000  8.0979541443407257   T   T   T
  6.4013282241949447  0.0000000000000000 11.2504993500539321   T   T   T
  9.6055218144796939  0.0000000000000000 11.4704334525069900   T   T   T
  6.4042659999999998  3.2351215000000000  3.6132425009199376   F   F   F
  9.6063989999999997  3.2351215000000000  3.6132425009199376   F   F   F
  6.4042659999999998  0.0000000000000000  0.3781210009199379   F   F   F
  9.6063989999999997  0.0000000000000000  0.3781210009199379   F   F   F
  8.0053324999999997  5.2308032509199833  4.8526822500000000   F   F   F
 11.2074654999999996  5.2308032509199833  4.8526822500000000   F   F   F
  8.0053324999999997  1.9956817509199831  1.6175607500000000   F   F   F
 11.2074654999999996  1.9956817509199831  1.6175607500000000   F   F   F
  6.4042659999999998  3.2351215000000000  6.0921219990800619   F   F   F
  9.6063989999999997  3.2351215000000000  6.0921219990800619   F   F   F
  6.4042659999999998  0.0000000000000000  2.8570004990800624   F   F   F
  9.6063989999999997  0.0000000000000000  2.8570004990800624   F   F   F
  8.0053324999999997  1.2394397490800166  4.8526822500000000   F   F   F
 11.2074654999999996  1.2394397490800166  4.8526822500000000   F   F   F
  8.0053324999999997  4.4745612490800166  1.6175607500000000   F   F   F
 11.2074654999999996  4.4745612490800166  1.6175607500000000   F   F   F
  6.4048635307911779  3.2351215000000000 10.0940784051507091   T   T   T
  9.6090419456174043  3.2351215000000000 10.0838728415619379   T   T   T
  6.4129132331498990  0.0000000000000000  6.8427993672239618   T   T   T
  9.6072685108089164  0.0000000000000000  6.8440199532260886   T   T   T
  7.9976513146338393  5.2328284989191909 11.3456320663608548   T   T   T
 11.2162667942739933  5.2337487496413813 11.3555453634225554   T   T   T
  8.0091545625089822  1.9931404100918362  8.0952236237651700   T   T   T
 11.2059576199974842  1.9930057010197531  8.0957506453358672   T   T   T
  6.4143176656500653  3.2351215000000000 12.5411819992788818   T   T   T
  6.4069528383523604  0.0000000000000000  9.3002184646322359   T   T   T
  9.6069249782598085  0.0000000000000000  9.3601258242460919   T   T   T
  7.9976513146338393  1.2374145010808106 11.3456320663608548   T   T   T
 11.2162667942739933  1.2364942503586185 11.3555453634225554   T   T   T
  8.0091545625089822  4.4771025899081636  8.0952236237651700   T   T   T
 11.2059576199974842  4.4772372989802465  8.0957506453358672   T   T   T
  9.5971133640031656  0.0000000000000000 13.2688558996626202   T   T   T
