Ir  O Ir  O 
 1.0000000000000000
    12.8085319999999996    0.0000000000000000    0.0000000000000000
     0.0000000000000000    6.4702430000000000    0.0000000000000000
     0.0000000000000000    0.0000000000000000   25.8809719999999999
  16  32  16  34
Selective dynamics
Cartesian
  1.6010664999999999  3.2351215000000000  4.8526822500000000   F   F   F
  4.8031994999999998  3.2351215000000000  4.8526822500000000   F   F   F
  1.6010664999999999  0.0000000000000000  1.6175607500000000   F   F   F
  4.8031994999999998  0.0000000000000000  1.6175607500000000   F   F   F
  0.0000000000000000  3.2351215000000000  1.6175607500000000   F   F   F
  3.2021329999999999  3.2351215000000000  1.6175607500000000   F   F   F
  0.0000000000000000  0.0000000000000000  4.8526822500000000   F   F   F
  3.2021329999999999  0.0000000000000000  4.8526822500000000   F   F   F
  1.6014884981003330  3.2349225403973967 11.3704996268293694   T   T   T
  4.8061561520484481  3.2344081235110513 11.3579092204000496   T   T   T
  1.5991187961910946  0.0008901392540763  8.0714197692187781   T   T   T
  4.8153323303601230  0.0010758375326560  8.0860763886253668   T   T   T
 -0.0023231139135611  3.2360016598471839  8.1058963595961817   T   T   T
  3.2004690367489728  3.2358969629766374  8.1054206935257564   T   T   T
 -0.0066918764068532 -0.0007751943569006 11.2534469485620754   T   T   T
  3.2135624377299457 -0.0003163886830913 11.2578019993389447   T   T   T
  0.0000000000000000  3.2351215000000000  3.6132425009199376   F   F   F
  3.2021329999999999  3.2351215000000000  3.6132425009199376   F   F   F
  0.0000000000000000  0.0000000000000000  0.3781210009199379   F   F   F
  3.2021329999999999  0.0000000000000000  0.3781210009199379   F   F   F
  1.6010664999999999  5.2308032509199833  4.8526822500000000   F   F   F
  4.8031994999999998  5.2308032509199833  4.8526822500000000   F   F   F
  1.6010664999999999  1.9956817509199831  1.6175607500000000   F   F   F
  4.8031994999999998  1.9956817509199831  1.6175607500000000   F   F   F
  0.0000000000000000  3.2351215000000000  6.0921219990800619   F   F   F
  3.2021329999999999  3.2351215000000000  6.0921219990800619   F   F   F
  0.0000000000000000  0.0000000000000000  2.8570004990800624   F   F   F
  3.2021329999999999  0.0000000000000000  2.8570004990800624   F   F   F
  1.6010664999999999  1.2394397490800166  4.8526822500000000   F   F   F
  4.8031994999999998  1.2394397490800166  4.8526822500000000   F   F   F
  1.6010664999999999  4.4745612490800166  1.6175607500000000   F   F   F
  4.8031994999999998  4.4745612490800166  1.6175607500000000   F   F   F
 -0.0007125353445960  3.2345179957160966 10.1006892591684458   T   T   T
  3.2008944727512043  3.2347585362521505 10.0999483976029296   T   T   T
 -0.0025684760548156  0.0015361589983518  6.8376719837048130   T   T   T
  3.2026580660450783  0.0013227426030455  6.8399990304643215   T   T   T
  1.6032480203182773  5.2423286325734182 11.3956076126346773   T   T   T
  4.8068051715905673  5.2346067255623163 11.3894970315933577   T   T   T
  1.5968401902266525  1.9958055761063895  8.0973335197151677   T   T   T
  4.8041458976695237  1.9948550863577597  8.0925870789623140   T   T   T
 -0.0054665759252485  3.2357110043809327 12.5538194406361612   T   T   T
  3.2099317909933713  3.2337655200583115 12.5537183905520973   T   T   T
 -0.0022649396201583  0.0007366763729696  9.2983262472313335   T   T   T
  3.2003630303071668  0.0000202773503821  9.3037716773647343   T   T   T
  1.6030756861522875  1.2269968439550687 11.3968250128481046   T   T   T
  4.8065138301416468  1.2340396193783971 11.3913643049693576   T   T   T
  1.5969895850532965  4.4760190817913319  8.0974953447243507   T   T   T
  4.8040686098163121  4.4775702825334767  8.0932050026412572   T   T   T
  8.0053324999999997  3.2351215000000000  4.8526822500000000   F   F   F
 11.2074654999999996  3.2351215000000000  4.8526822500000000   F   F   F
  8.0053324999999997  0.0000000000000000  1.6175607500000000   F   F   F
 11.2074654999999996  0.0000000000000000  1.6175607500000000   F   F   F
  6.4042659999999998  3.2351215000000000  1.6175607500000000   F   F   F
  9.6063989999999997  3.2351215000000000  1.6175607500000000   F   F   F
  6.4042659999999998  0.0000000000000000  4.8526822500000000   F   F   F
  9.6063989999999997  0.0000000000000000  4.8526822500000000   F   F   F
  8.0040343580380409  3.2335134022685157 11.3142976234717718   T   T   T
 11.2042035777283449  3.2337499228767022 11.3582906297548316   T   T   T
  8.0025789038292849  0.0009268293850840  8.1021092388003524   T   T   T
 11.1915210049252138  0.0010635394174328  8.0831921138041860   T   T   T
  6.4022097786581318  3.2359888034831066  8.0942744687240715   T   T   T
  9.6055696739754808  3.2358953697219590  8.0953685540730831   T   T   T
  6.4296909129483053 -0.0014935958330202 11.4124557632718950   T   T   T
  9.5818710436830870 -0.0015732989525508 11.4105025806965745   T   T   T
  6.4042659999999998  3.2351215000000000  3.6132425009199376   F   F   F
  9.6063989999999997  3.2351215000000000  3.6132425009199376   F   F   F
  6.4042659999999998  0.0000000000000000  0.3781210009199379   F   F   F
  9.6063989999999997  0.0000000000000000  0.3781210009199379   F   F   F
  8.0053324999999997  5.2308032509199833  4.8526822500000000   F   F   F
 11.2074654999999996  5.2308032509199833  4.8526822500000000   F   F   F
  8.0053324999999997  1.9956817509199831  1.6175607500000000   F   F   F
 11.2074654999999996  1.9956817509199831  1.6175607500000000   F   F   F
  6.4042659999999998  3.2351215000000000  6.0921219990800619   F   F   F
  9.6063989999999997  3.2351215000000000  6.0921219990800619   F   F   F
  6.4042659999999998  0.0000000000000000  2.8570004990800624   F   F   F
  9.6063989999999997  0.0000000000000000  2.8570004990800624   F   F   F
  8.0053324999999997  1.2394397490800166  4.8526822500000000   F   F   F
 11.2074654999999996  1.2394397490800166  4.8526822500000000   F   F   F
  8.0053324999999997  4.4745612490800166  1.6175607500000000   F   F   F
 11.2074654999999996  4.4745612490800166  1.6175607500000000   F   F   F
  6.3926833537949408  3.2341482100779153 10.0772128444855777   T   T   T
  9.6142799666317380  3.2325692301632145 10.0783409123677519   T   T   T
  6.4065636476658776 -0.0000339824235446  6.8510696944751492   T   T   T
  9.5999771489775618 -0.0002905615918654  6.8488656080723063   T   T   T
  8.0037160973522710  5.2231185814162062 11.2163075678411026   T   T   T
 11.2079921206261837  5.2341734256480121 11.3845552123528257   T   T   T
  8.0019719252617829  1.9920820004947717  8.0872518783162395   T   T   T
 11.2058730266283302  1.9946319792640794  8.0910981871575007   T   T   T
  6.4247083199627664  3.2341488786135861 12.5143130991708222   T   T   T
  9.5842962767255866  3.2346747286873869 12.5131770968511109   T   T   T
  6.3814073313907080  0.0035042766905770  9.3401103659078082   T   T   T
  9.6240847910883058  0.0022833155494144  9.3392602756921317   T   T   T
  8.0034401412406044  1.2441444984747627 11.2219710893261357   T   T   T
 11.2084064490902282  1.2338901924588916 11.3876727377662963   T   T   T
  8.0015149214807408  4.4796664603619414  8.0888847718346852   T   T   T
 11.2058181103062591  4.4778597520419634  8.0924483181079925   T   T   T
  9.2940667035846243 -0.0059755561434425 13.2268902312974372   T   T   T
  6.7178279961758074 -0.0076154894213949 13.2265819474286896   T   T   T
