Ir  O Ir  O 
 1.0000000000000000
    12.8085319999999996    0.0000000000000000    0.0000000000000000
     0.0000000000000000    6.4702430000000000    0.0000000000000000
     0.0000000000000000    0.0000000000000000   25.8809719999999999
  16  32  16  34
Selective dynamics
Cartesian
  1.6010664999999999  3.2351215000000000  4.8526822500000000   F   F   F
  4.8031994999999998  3.2351215000000000  4.8526822500000000   F   F   F
  1.6010664999999999  0.0000000000000000  1.6175607500000000   F   F   F
  4.8031994999999998  0.0000000000000000  1.6175607500000000   F   F   F
  0.0000000000000000  3.2351215000000000  1.6175607500000000   F   F   F
  3.2021329999999999  3.2351215000000000  1.6175607500000000   F   F   F
  0.0000000000000000  0.0000000000000000  4.8526822500000000   F   F   F
  3.2021329999999999  0.0000000000000000  4.8526822500000000   F   F   F
  1.6022609769266687  3.2350220201986986 11.3691065898323114   T   T   T
  4.8069983124385107  3.2347648117555257 11.3517075943093442   T   T   T
  1.5998225294104256  0.0004450696270382  8.0702010944638367   T   T   T
  4.8195834530629744  0.0005379187663280  8.0876480132146398   T   T   T
 -0.0023337398220116  3.2355615799235919  8.1045418501474078   T   T   T
  3.2013924072169684  3.2355092314883187  8.1041025172488901   T   T   T
 -0.0004611843389798 -0.0003875971784503 11.2495039987551220   T   T   T
  3.2096591964936296 -0.0001581943415457 11.2523898381925971   T   T   T
  0.0000000000000000  3.2351215000000000  3.6132425009199376   F   F   F
  3.2021329999999999  3.2351215000000000  3.6132425009199376   F   F   F
  0.0000000000000000  0.0000000000000000  0.3781210009199379   F   F   F
  3.2021329999999999  0.0000000000000000  0.3781210009199379   F   F   F
  1.6010664999999999  5.2308032509199833  4.8526822500000000   F   F   F
  4.8031994999999998  5.2308032509199833  4.8526822500000000   F   F   F
  1.6010664999999999  1.9956817509199831  1.6175607500000000   F   F   F
  4.8031994999999998  1.9956817509199831  1.6175607500000000   F   F   F
  0.0000000000000000  3.2351215000000000  6.0921219990800619   F   F   F
  3.2021329999999999  3.2351215000000000  6.0921219990800619   F   F   F
  0.0000000000000000  0.0000000000000000  2.8570004990800624   F   F   F
  3.2021329999999999  0.0000000000000000  2.8570004990800624   F   F   F
  1.6010664999999999  1.2394397490800166  4.8526822500000000   F   F   F
  4.8031994999999998  1.2394397490800166  4.8526822500000000   F   F   F
  1.6010664999999999  4.4745612490800166  1.6175607500000000   F   F   F
  4.8031994999999998  4.4745612490800166  1.6175607500000000   F   F   F
  0.0004050053199385  3.2348197478580483 10.0979052778871683   T   T   T
  3.2005809991038476  3.2349400181260752 10.0974706236525442   T   T   T
 -0.0040744012880173  0.0007680794991759  6.8385682918112973   T   T   T
  3.2050922587956485  0.0006613713015228  6.8406453083788730   T   T   T
  1.6041490476554288  5.2414587686495668 11.3947562416195360   T   T   T
  4.8020850080784614  5.2326603158002678 11.3686631910041811   T   T   T
  1.5973958545419049  1.9955715322431311  8.0947585294407691   T   T   T
  4.8064039792249575  1.9942740818882068  8.0932789402196814   T   T   T
 -0.0049509190922840  3.2354162521904661 12.5517033038334080   T   T   T
  3.2121464521176013  3.2344435100291560 12.5507555300097540   T   T   T
 -0.0019898743217411  0.0003683381864848  9.2967840881657029   T   T   T
  3.2021139406389389  0.0000101386751911  9.3014085613805690   T   T   T
  1.6040628805724337  1.2283254696146766 11.3953649417262497   T   T   T
  4.8019393373540016  1.2367843566700891 11.3695968276921811   T   T   T
  1.5974705519552270  4.4754622967057296  8.0948394419453606   T   T   T
  4.8063653352983513  4.4770601025574113  8.0935879020591521   T   T   T
  8.0053324999999997  3.2351215000000000  4.8526822500000000   F   F   F
 11.2074654999999996  3.2351215000000000  4.8526822500000000   F   F   F
  8.0053324999999997  0.0000000000000000  1.6175607500000000   F   F   F
 11.2074654999999996  0.0000000000000000  1.6175607500000000   F   F   F
  6.4042659999999998  3.2351215000000000  1.6175607500000000   F   F   F
  9.6063989999999997  3.2351215000000000  1.6175607500000000   F   F   F
  6.4042659999999998  0.0000000000000000  4.8526822500000000   F   F   F
  9.6063989999999997  0.0000000000000000  4.8526822500000000   F   F   F
  8.0048925441025105  3.2343174511342578 11.3222180104252317   T   T   T
 11.2055115907018923  3.2344357114383508 11.3536186858498613   T   T   T
  8.0036199964576369  0.0004634146925420  8.1012406473830989   T   T   T
 11.1890535534617772  0.0005317697087164  8.0855005007587639   T   T   T
  6.4039621655271661  3.2355551517415533  8.0946744011661185   T   T   T
  9.6052383589604986  3.2355084348609795  8.0959901751249017   T   T   T
  6.4184397353021625 -0.0007467979165101 11.4267089359492395   T   T   T
  9.5952858253532245 -0.0007866494762754 11.4262138403556790   T   T   T
  6.4042659999999998  3.2351215000000000  3.6132425009199376   F   F   F
  9.6063989999999997  3.2351215000000000  3.6132425009199376   F   F   F
  6.4042659999999998  0.0000000000000000  0.3781210009199379   F   F   F
  9.6063989999999997  0.0000000000000000  0.3781210009199379   F   F   F
  8.0053324999999997  5.2308032509199833  4.8526822500000000   F   F   F
 11.2074654999999996  5.2308032509199833  4.8526822500000000   F   F   F
  8.0053324999999997  1.9956817509199831  1.6175607500000000   F   F   F
 11.2074654999999996  1.9956817509199831  1.6175607500000000   F   F   F
  6.4042659999999998  3.2351215000000000  6.0921219990800619   F   F   F
  9.6063989999999997  3.2351215000000000  6.0921219990800619   F   F   F
  6.4042659999999998  0.0000000000000000  2.8570004990800624   F   F   F
  9.6063989999999997  0.0000000000000000  2.8570004990800624   F   F   F
  8.0053324999999997  1.2394397490800166  4.8526822500000000   F   F   F
 11.2074654999999996  1.2394397490800166  4.8526822500000000   F   F   F
  8.0053324999999997  4.4745612490800166  1.6175607500000000   F   F   F
 11.2074654999999996  4.4745612490800166  1.6175607500000000   F   F   F
  6.3984158843943879  3.2346348550389576 10.0785681943835463   T   T   T
  9.6110176744333327  3.2338453650816072 10.0801534888543127   T   T   T
  6.4067069708745317 -0.0000169912117723  6.8501664475138258   T   T   T
  9.6011024150493309 -0.0001452807959327  6.8487208092156102   T   T   T
  8.0042735678863757  5.2287875424619159 11.2523961790050091   T   T   T
 11.2155791381609475  5.2325131127988529 11.3679829534185988   T   T   T
  8.0026800655000052  1.9910147202382866  8.0877274770121428   T   T   T
 11.2049617155351804  1.9940150989764087  8.0919577475774069   T   T   T
  6.4194232157551729  3.2346351893067933 12.5154134183539014   T   T   T
  9.5908115664774929  3.2348981143436935 12.5149085043664847   T   T   T
  6.3909678151361122  0.0017521383452885  9.3421739605184388   T   T   T
  9.6169491000882914  0.0011416577747072  9.3426365625280621   T   T   T
  8.0041355898305433  1.2399654974835681 11.2552279397475257   T   T   T
 11.2157863023929689  1.2366401962545988 11.3695417161253332   T   T   T
  8.0024515636094851  4.4799810101900706  8.0885439237713666   T   T   T
 11.2049342573741431  4.4773522666766130  8.0926328130526510   T   T   T
  9.4410852592768251 -0.0029877780717212 13.2334609519686754   T   T   T
  6.5715968697124696 -0.0038077447106975 13.2321232264533215   T   T   T
