Ir64 O130                               
   1.00000000000000     
    12.8085319999999996    0.0000000000000000    0.0000000000000000
     0.0000000000000000   12.9404859999999999    0.0000000000000000
     0.0000000000000000    0.0000000000000000   25.8809719999999999
   Ir   O 
    64   130
Selective dynamics
Direct
  0.1250000000000000  0.2500000000000000  0.1875000000000000   F   F   F
  0.3750000000000000  0.2500000000000000  0.1875000000000000   F   F   F
  0.1250000000000000  0.0000000000000000  0.0625000000000000   F   F   F
  0.3750000000000000  0.0000000000000000  0.0625000000000000   F   F   F
  0.0000000000000000  0.2500000000000000  0.0625000000000000   F   F   F
  0.2500000000000000  0.2500000000000000  0.0625000000000000   F   F   F
  0.0000000000000000  0.0000000000000000  0.1875000000000000   F   F   F
  0.2500000000000000  0.0000000000000000  0.1875000000000000   F   F   F
  0.1249010923222380  0.2498990781468486  0.4394194913289779   T   T   T
  0.3751174091524458  0.2499031714993882  0.4394190001016166   T   T   T
  0.1247721177884034  0.0000020933129723  0.3120323206266338   T   T   T
  0.3752262646220942  0.0000016836202570  0.3120300489276645   T   T   T
  0.9998873655862547  0.2499957510741059  0.3132950118444892   T   T   T
  0.2500084302143599  0.2500248027635160  0.3133060063340346   T   T   T
  0.0001822761062594 -0.0000005740648477  0.4349602481293046   T   T   T
  0.2500097618384401 -0.0000022047303718  0.4354061585455850   T   T   T
  0.6250000000000000  0.2500000000000000  0.1875000000000000   F   F   F
  0.8750000000000000  0.2500000000000000  0.1875000000000000   F   F   F
  0.6250000000000000  0.0000000000000000  0.0625000000000000   F   F   F
  0.8750000000000000  0.0000000000000000  0.0625000000000000   F   F   F
  0.5000000000000000  0.2500000000000000  0.0625000000000000   F   F   F
  0.7500000000000000  0.2500000000000000  0.0625000000000000   F   F   F
  0.5000000000000000  0.0000000000000000  0.1875000000000000   F   F   F
  0.7500000000000000  0.0000000000000000  0.1875000000000000   F   F   F
  0.6252363815152696  0.2500968760513545  0.4387966917363555   T   T   T
  0.8747878374215780  0.2500953258119645  0.4387940660995490   T   T   T
  0.6264971388898898  0.0000020920780675  0.3128147153906242   T   T   T
  0.8735030123205902 -0.0000012075843585  0.3128162888007373   T   T   T
  0.5001154351256706  0.2499932205496794  0.3132935231371275   T   T   T
  0.7500016899560114  0.2499075389324962  0.3131403398293637   T   T   T
  0.4998300202389187  0.0000052194270725  0.4349634163177533   T   T   T
  0.7500016011920269  0.0000077383524255  0.4431900923760718   T   T   T
  0.1250000000000000  0.7500000000000000  0.1875000000000000   F   F   F
  0.3750000000000000  0.7500000000000000  0.1875000000000000   F   F   F
  0.1250000000000000  0.5000000000000000  0.0625000000000000   F   F   F
  0.3750000000000000  0.5000000000000000  0.0625000000000000   F   F   F
  0.0000000000000000  0.7500000000000000  0.0625000000000000   F   F   F
  0.2500000000000000  0.7500000000000000  0.0625000000000000   F   F   F
  0.0000000000000000  0.5000000000000000  0.1875000000000000   F   F   F
  0.2500000000000000  0.5000000000000000  0.1875000000000000   F   F   F
  0.1248944381387500  0.7501057480436890  0.4394178383992132   T   T   T
  0.3751150047343588  0.7500966227461757  0.4394191020243013   T   T   T
  0.1246450933962040  0.4999985910512342  0.3122432130318619   T   T   T
  0.3753550130461521  0.4999954983419618  0.3122414610301822   T   T   T
  0.9998899138330059  0.7500100106699773  0.3132963057561084   T   T   T
  0.2500054406110971  0.7499764234401187  0.3133012636206028   T   T   T
  0.0003903703408057  0.5000013330161162  0.4353534844031228   T   T   T
  0.2500018086810941  0.5000034101239542  0.4354397225960621   T   T   T
  0.6250000000000000  0.7500000000000000  0.1875000000000000   F   F   F
  0.8750000000000000  0.7500000000000000  0.1875000000000000   F   F   F
  0.6250000000000000  0.5000000000000000  0.0625000000000000   F   F   F
  0.8750000000000000  0.5000000000000000  0.0625000000000000   F   F   F
  0.5000000000000000  0.7500000000000000  0.0625000000000000   F   F   F
  0.7500000000000000  0.7500000000000000  0.0625000000000000   F   F   F
  0.5000000000000000  0.5000000000000000  0.1875000000000000   F   F   F
  0.7500000000000000  0.5000000000000000  0.1875000000000000   F   F   F
  0.6252247340195222  0.7499091549797245  0.4387995979952471   T   T   T
  0.8747877610911703  0.7499151260728483  0.4387983140834977   T   T   T
  0.6266713037796811  0.5000014962081620  0.3130778319357218   T   T   T
  0.8733243875030183  0.5000031094630241  0.3130778715184557   T   T   T
  0.5001138880079273  0.7500064771227336  0.3132949166435667   T   T   T
  0.7500016307523872  0.7500882283997182  0.3131359013696240   T   T   T
  0.4996300824690783  0.5000061340111259  0.4353562465789446   T   T   T
  0.7500384616335020  0.5000097972342545  0.4434876353187404   T   T   T
  0.0000000000000000  0.2500000000000000  0.1396099999999976   F   F   F
  0.2500000000000000  0.2500000000000000  0.1396099999999976   F   F   F
  0.0000000000000000  0.0000000000000000  0.0146099999999976   F   F   F
  0.2500000000000000  0.0000000000000000  0.0146099999999976   F   F   F
  0.1250000000000000  0.4042200000000022  0.1875000000000000   F   F   F
  0.3750000000000000  0.4042200000000022  0.1875000000000000   F   F   F
  0.1250000000000000  0.1542200000000022  0.0625000000000000   F   F   F
  0.3750000000000000  0.1542200000000022  0.0625000000000000   F   F   F
  0.0000000000000000  0.2500000000000000  0.2353900000000024   F   F   F
  0.2500000000000000  0.2500000000000000  0.2353900000000024   F   F   F
  0.0000000000000000  0.0000000000000000  0.1103900000000024   F   F   F
  0.2500000000000000  0.0000000000000000  0.1103900000000024   F   F   F
  0.1250000000000000  0.0957799999999978  0.1875000000000000   F   F   F
  0.3750000000000000  0.0957799999999978  0.1875000000000000   F   F   F
  0.1250000000000000  0.3457799999999978  0.0625000000000000   F   F   F
  0.3750000000000000  0.3457799999999978  0.0625000000000000   F   F   F
 -0.0000799075458853  0.2500789200634157  0.3903552495845910   T   T   T
  0.2500050622651271  0.2499849295074399  0.3904342086659048   T   T   T
  0.9993173538991648  0.9999823391519339  0.2644940182576418   T   T   T
  0.2499983381901502  0.0000043724161637  0.2643242252725105   T   T   T
  0.1252848016080068  0.4049649759150001  0.4407892605711317   T   T   T
  0.3747278158249175  0.4049649402272945  0.4407900873414914   T   T   T
  0.1247742610905233  0.1542403493848211  0.3131053496402457   T   T   T
  0.3752260755666555  0.1542351158364549  0.3131104420593187   T   T   T
  0.9995770185382344  0.2500215209118146  0.4849563355448625   T   T   T
  0.2500047182570354  0.2495356890564958  0.4854075314358520   T   T   T
  0.9999068164267104 -0.0000208402835579  0.3595158685348007   T   T   T
  0.2500044919705952 -0.0000092885206074  0.3595583930305082   T   T   T
  0.1252374185904842  0.0949871240093410  0.4406794860851194   T   T   T
  0.3747772414078629  0.0949874455223759  0.4406803282138628   T   T   T
  0.1246742586737741  0.3457850079294261  0.3132197501204558   T   T   T
  0.3753218329871478  0.3457771666230610  0.3132066877108512   T   T   T
  0.5000000000000000  0.2500000000000000  0.1396099999999976   F   F   F
  0.7500000000000000  0.2500000000000000  0.1396099999999976   F   F   F
  0.5000000000000000  0.0000000000000000  0.0146099999999976   F   F   F
  0.7500000000000000  0.0000000000000000  0.0146099999999976   F   F   F
  0.6250000000000000  0.4042200000000022  0.1875000000000000   F   F   F
  0.8750000000000000  0.4042200000000022  0.1875000000000000   F   F   F
  0.6250000000000000  0.1542200000000022  0.0625000000000000   F   F   F
  0.8750000000000000  0.1542200000000022  0.0625000000000000   F   F   F
  0.5000000000000000  0.2500000000000000  0.2353900000000024   F   F   F
  0.7500000000000000  0.2500000000000000  0.2353900000000024   F   F   F
  0.5000000000000000  0.0000000000000000  0.1103900000000024   F   F   F
  0.7500000000000000  0.0000000000000000  0.1103900000000024   F   F   F
  0.6250000000000000  0.0957799999999978  0.1875000000000000   F   F   F
  0.8750000000000000  0.0957799999999978  0.1875000000000000   F   F   F
  0.6250000000000000  0.3457799999999978  0.0625000000000000   F   F   F
  0.8750000000000000  0.3457799999999978  0.0625000000000000   F   F   F
  0.5000820346024695  0.2500547443401024  0.3903534660917150   T   T   T
  0.7500029794354910  0.2504200672318925  0.3898910352673199   T   T   T
  0.5006929089139487  0.0000023814434283  0.2644891718167911   T   T   T
  0.7500014268878913  0.0000234905941928  0.2645148811626766   T   T   T
  0.6249570845502872  0.4049395111518450  0.4389779082511568   T   T   T
  0.8751130965371932  0.4049241746974833  0.4389658146123493   T   T   T
  0.6251296709868837  0.1541781698819491  0.3131387979469367   T   T   T
  0.8748676952034099  0.1541700453460360  0.3131438030880155   T   T   T
  0.5004368127235331  0.2500263113665417  0.4849599997533199   T   T   T
  0.7499842352994697  0.2499503421248629  0.4845138204374193   T   T   T
  0.5000833582343945  0.0000035958485852  0.3595149592997561   T   T   T
  0.7499853916486380  0.0000094284864354  0.3616813419739944   T   T   T
  0.6242829907062368  0.0956003983668584  0.4389322453877333   T   T   T
  0.8757164604478930  0.0955956671218127  0.4389232510358937   T   T   T
  0.6252067841423291  0.3456953272582920  0.3131325042266174   T   T   T
  0.8747872795748822  0.3456921355828191  0.3131435284714099   T   T   T
  0.7499629712730664 -0.0000047757199484  0.5126746228991086   T   T   T
  0.0000000000000000  0.7500000000000000  0.1396099999999976   F   F   F
  0.2500000000000000  0.7500000000000000  0.1396099999999976   F   F   F
  0.0000000000000000  0.5000000000000000  0.0146099999999976   F   F   F
  0.2500000000000000  0.5000000000000000  0.0146099999999976   F   F   F
  0.1250000000000000  0.9042200000000022  0.1875000000000000   F   F   F
  0.3750000000000000  0.9042200000000022  0.1875000000000000   F   F   F
  0.1250000000000000  0.6542200000000022  0.0625000000000000   F   F   F
  0.3750000000000000  0.6542200000000022  0.0625000000000000   F   F   F
  0.0000000000000000  0.7500000000000000  0.2353900000000024   F   F   F
  0.2500000000000000  0.7500000000000000  0.2353900000000024   F   F   F
  0.0000000000000000  0.5000000000000000  0.1103900000000024   F   F   F
  0.2500000000000000  0.5000000000000000  0.1103900000000024   F   F   F
  0.1250000000000000  0.5957799999999978  0.1875000000000000   F   F   F
  0.3750000000000000  0.5957799999999978  0.1875000000000000   F   F   F
  0.1250000000000000  0.8457799999999978  0.0625000000000000   F   F   F
  0.3750000000000000  0.8457799999999978  0.0625000000000000   F   F   F
 -0.0000807962380072  0.7499423772496931  0.3903567654143462   T   T   T
  0.2500088651061885  0.7499740343056047  0.3904478888302081   T   T   T
 -0.0007912876839693  0.4999919249885012  0.2646789563191628   T   T   T
  0.2500032458393045  0.4999806594470659  0.2644119868484702   T   T   T
  0.1252453041707475  0.9049984126208298  0.4406702189913959   T   T   T
  0.3747794350726414  0.9050130368378562  0.4406768580258529   T   T   T
  0.1246698584421621  0.6542290975613078  0.3132168167882497   T   T   T
  0.3753298171903671  0.6542121416695259  0.3132196749945436   T   T   T
  0.9995788346501657  0.7499693200024856  0.4849592613156879   T   T   T
  0.2500004795286775  0.7504794808054750  0.4854052681379243   T   T   T
 -0.0005113578024864  0.5000019400198257  0.3598720525355470   T   T   T
  0.2500033832347594  0.4999917129466148  0.3597075481239170   T   T   T
  0.1252662492519265  0.5950458615670101  0.4407969059636045   T   T   T
  0.3747286590443484  0.5950365726357709  0.4407866208709577   T   T   T
  0.1247774407930993  0.8457608070912562  0.3131082084575950   T   T   T
  0.3752279063756518  0.8457625047629449  0.3131068527328169   T   T   T
  0.5000000000000000  0.7500000000000000  0.1396099999999976   F   F   F
  0.7500000000000000  0.7500000000000000  0.1396099999999976   F   F   F
  0.5000000000000000  0.5000000000000000  0.0146099999999976   F   F   F
  0.7500000000000000  0.5000000000000000  0.0146099999999976   F   F   F
  0.6250000000000000  0.9042200000000022  0.1875000000000000   F   F   F
  0.8750000000000000  0.9042200000000022  0.1875000000000000   F   F   F
  0.6250000000000000  0.6542200000000022  0.0625000000000000   F   F   F
  0.8750000000000000  0.6542200000000022  0.0625000000000000   F   F   F
  0.5000000000000000  0.7500000000000000  0.2353900000000024   F   F   F
  0.7500000000000000  0.7500000000000000  0.2353900000000024   F   F   F
  0.5000000000000000  0.5000000000000000  0.1103900000000024   F   F   F
  0.7500000000000000  0.5000000000000000  0.1103900000000024   F   F   F
  0.6250000000000000  0.5957799999999978  0.1875000000000000   F   F   F
  0.8750000000000000  0.5957799999999978  0.1875000000000000   F   F   F
  0.6250000000000000  0.8457799999999978  0.0625000000000000   F   F   F
  0.8750000000000000  0.8457799999999978  0.0625000000000000   F   F   F
  0.5000820300111682  0.7499348050667121  0.3903592916329710   T   T   T
  0.7500054891250165  0.7495111509095138  0.3898994826531124   T   T   T
  0.5007776472376265  0.4999984176250483  0.2646728959596415   T   T   T
  0.7500019426814811  0.4999908909907999  0.2645765918691796   T   T   T
  0.6242490183410696  0.9043807210149374  0.4389223290281916   T   T   T
  0.8757274000325274  0.9043955587177440  0.4389268810988388   T   T   T
  0.6252174426703699  0.6542986308146042  0.3131391865358413   T   T   T
  0.8747892743384116  0.6543117586911261  0.3131389785305611   T   T   T
  0.5004341858710863  0.7500061163006241  0.4849637576118166   T   T   T
  0.7500040245256597  0.7500601350946529  0.4845168201908752   T   T   T
  0.5005012761855205  0.4999622260137030  0.3598678593185144   T   T   T
  0.7499989200878834  0.5000094033355139  0.3623250029068357   T   T   T
  0.6249373774357292  0.5950797950030164  0.4389832182967253   T   T   T
  0.8751078100494826  0.5950923037278406  0.4389511033973076   T   T   T
  0.6251233016373052  0.8458312400454241  0.3131284277395278   T   T   T
  0.8748666911800453  0.8458336190325656  0.3131342737804445   T   T   T
  0.7501362546513406  0.5000054453216529  0.5125605553869701   T   T   T
 
  0.00000000E+00  0.00000000E+00  0.00000000E+00
  0.00000000E+00  0.00000000E+00  0.00000000E+00
  0.00000000E+00  0.00000000E+00  0.00000000E+00
  0.00000000E+00  0.00000000E+00  0.00000000E+00
  0.00000000E+00  0.00000000E+00  0.00000000E+00
  0.00000000E+00  0.00000000E+00  0.00000000E+00
  0.00000000E+00  0.00000000E+00  0.00000000E+00
  0.00000000E+00  0.00000000E+00  0.00000000E+00
  0.00000000E+00  0.00000000E+00  0.00000000E+00
  0.00000000E+00  0.00000000E+00  0.00000000E+00
  0.00000000E+00  0.00000000E+00  0.00000000E+00
  0.00000000E+00  0.00000000E+00  0.00000000E+00
  0.00000000E+00  0.00000000E+00  0.00000000E+00
  0.00000000E+00  0.00000000E+00  0.00000000E+00
  0.00000000E+00  0.00000000E+00  0.00000000E+00
  0.00000000E+00  0.00000000E+00  0.00000000E+00
  0.00000000E+00  0.00000000E+00  0.00000000E+00
  0.00000000E+00  0.00000000E+00  0.00000000E+00
  0.00000000E+00  0.00000000E+00  0.00000000E+00
  0.00000000E+00  0.00000000E+00  0.00000000E+00
  0.00000000E+00  0.00000000E+00  0.00000000E+00
  0.00000000E+00  0.00000000E+00  0.00000000E+00
  0.00000000E+00  0.00000000E+00  0.00000000E+00
  0.00000000E+00  0.00000000E+00  0.00000000E+00
  0.00000000E+00  0.00000000E+00  0.00000000E+00
  0.00000000E+00  0.00000000E+00  0.00000000E+00
  0.00000000E+00  0.00000000E+00  0.00000000E+00
  0.00000000E+00  0.00000000E+00  0.00000000E+00
  0.00000000E+00  0.00000000E+00  0.00000000E+00
  0.00000000E+00  0.00000000E+00  0.00000000E+00
  0.00000000E+00  0.00000000E+00  0.00000000E+00
  0.00000000E+00  0.00000000E+00  0.00000000E+00
  0.00000000E+00  0.00000000E+00  0.00000000E+00
  0.00000000E+00  0.00000000E+00  0.00000000E+00
  0.00000000E+00  0.00000000E+00  0.00000000E+00
  0.00000000E+00  0.00000000E+00  0.00000000E+00
  0.00000000E+00  0.00000000E+00  0.00000000E+00
  0.00000000E+00  0.00000000E+00  0.00000000E+00
  0.00000000E+00  0.00000000E+00  0.00000000E+00
  0.00000000E+00  0.00000000E+00  0.00000000E+00
  0.00000000E+00  0.00000000E+00  0.00000000E+00
  0.00000000E+00  0.00000000E+00  0.00000000E+00
  0.00000000E+00  0.00000000E+00  0.00000000E+00
  0.00000000E+00  0.00000000E+00  0.00000000E+00
  0.00000000E+00  0.00000000E+00  0.00000000E+00
  0.00000000E+00  0.00000000E+00  0.00000000E+00
  0.00000000E+00  0.00000000E+00  0.00000000E+00
  0.00000000E+00  0.00000000E+00  0.00000000E+00
  0.00000000E+00  0.00000000E+00  0.00000000E+00
  0.00000000E+00  0.00000000E+00  0.00000000E+00
  0.00000000E+00  0.00000000E+00  0.00000000E+00
  0.00000000E+00  0.00000000E+00  0.00000000E+00
  0.00000000E+00  0.00000000E+00  0.00000000E+00
  0.00000000E+00  0.00000000E+00  0.00000000E+00
  0.00000000E+00  0.00000000E+00  0.00000000E+00
  0.00000000E+00  0.00000000E+00  0.00000000E+00
  0.00000000E+00  0.00000000E+00  0.00000000E+00
  0.00000000E+00  0.00000000E+00  0.00000000E+00
  0.00000000E+00  0.00000000E+00  0.00000000E+00
  0.00000000E+00  0.00000000E+00  0.00000000E+00
  0.00000000E+00  0.00000000E+00  0.00000000E+00
  0.00000000E+00  0.00000000E+00  0.00000000E+00
  0.00000000E+00  0.00000000E+00  0.00000000E+00
  0.00000000E+00  0.00000000E+00  0.00000000E+00
  0.00000000E+00  0.00000000E+00  0.00000000E+00
  0.00000000E+00  0.00000000E+00  0.00000000E+00
  0.00000000E+00  0.00000000E+00  0.00000000E+00
  0.00000000E+00  0.00000000E+00  0.00000000E+00
  0.00000000E+00  0.00000000E+00  0.00000000E+00
  0.00000000E+00  0.00000000E+00  0.00000000E+00
  0.00000000E+00  0.00000000E+00  0.00000000E+00
  0.00000000E+00  0.00000000E+00  0.00000000E+00
  0.00000000E+00  0.00000000E+00  0.00000000E+00
  0.00000000E+00  0.00000000E+00  0.00000000E+00
  0.00000000E+00  0.00000000E+00  0.00000000E+00
  0.00000000E+00  0.00000000E+00  0.00000000E+00
  0.00000000E+00  0.00000000E+00  0.00000000E+00
  0.00000000E+00  0.00000000E+00  0.00000000E+00
  0.00000000E+00  0.00000000E+00  0.00000000E+00
  0.00000000E+00  0.00000000E+00  0.00000000E+00
  0.00000000E+00  0.00000000E+00  0.00000000E+00
  0.00000000E+00  0.00000000E+00  0.00000000E+00
  0.00000000E+00  0.00000000E+00  0.00000000E+00
  0.00000000E+00  0.00000000E+00  0.00000000E+00
  0.00000000E+00  0.00000000E+00  0.00000000E+00
  0.00000000E+00  0.00000000E+00  0.00000000E+00
  0.00000000E+00  0.00000000E+00  0.00000000E+00
  0.00000000E+00  0.00000000E+00  0.00000000E+00
  0.00000000E+00  0.00000000E+00  0.00000000E+00
  0.00000000E+00  0.00000000E+00  0.00000000E+00
  0.00000000E+00  0.00000000E+00  0.00000000E+00
  0.00000000E+00  0.00000000E+00  0.00000000E+00
  0.00000000E+00  0.00000000E+00  0.00000000E+00
  0.00000000E+00  0.00000000E+00  0.00000000E+00
  0.00000000E+00  0.00000000E+00  0.00000000E+00
  0.00000000E+00  0.00000000E+00  0.00000000E+00
  0.00000000E+00  0.00000000E+00  0.00000000E+00
  0.00000000E+00  0.00000000E+00  0.00000000E+00
  0.00000000E+00  0.00000000E+00  0.00000000E+00
  0.00000000E+00  0.00000000E+00  0.00000000E+00
  0.00000000E+00  0.00000000E+00  0.00000000E+00
  0.00000000E+00  0.00000000E+00  0.00000000E+00
  0.00000000E+00  0.00000000E+00  0.00000000E+00
  0.00000000E+00  0.00000000E+00  0.00000000E+00
  0.00000000E+00  0.00000000E+00  0.00000000E+00
  0.00000000E+00  0.00000000E+00  0.00000000E+00
  0.00000000E+00  0.00000000E+00  0.00000000E+00
  0.00000000E+00  0.00000000E+00  0.00000000E+00
  0.00000000E+00  0.00000000E+00  0.00000000E+00
  0.00000000E+00  0.00000000E+00  0.00000000E+00
  0.00000000E+00  0.00000000E+00  0.00000000E+00
  0.00000000E+00  0.00000000E+00  0.00000000E+00
  0.00000000E+00  0.00000000E+00  0.00000000E+00
  0.00000000E+00  0.00000000E+00  0.00000000E+00
  0.00000000E+00  0.00000000E+00  0.00000000E+00
  0.00000000E+00  0.00000000E+00  0.00000000E+00
  0.00000000E+00  0.00000000E+00  0.00000000E+00
  0.00000000E+00  0.00000000E+00  0.00000000E+00
  0.00000000E+00  0.00000000E+00  0.00000000E+00
  0.00000000E+00  0.00000000E+00  0.00000000E+00
  0.00000000E+00  0.00000000E+00  0.00000000E+00
  0.00000000E+00  0.00000000E+00  0.00000000E+00
  0.00000000E+00  0.00000000E+00  0.00000000E+00
  0.00000000E+00  0.00000000E+00  0.00000000E+00
  0.00000000E+00  0.00000000E+00  0.00000000E+00
  0.00000000E+00  0.00000000E+00  0.00000000E+00
  0.00000000E+00  0.00000000E+00  0.00000000E+00
  0.00000000E+00  0.00000000E+00  0.00000000E+00
  0.00000000E+00  0.00000000E+00  0.00000000E+00
  0.00000000E+00  0.00000000E+00  0.00000000E+00
  0.00000000E+00  0.00000000E+00  0.00000000E+00
  0.00000000E+00  0.00000000E+00  0.00000000E+00
  0.00000000E+00  0.00000000E+00  0.00000000E+00
  0.00000000E+00  0.00000000E+00  0.00000000E+00
  0.00000000E+00  0.00000000E+00  0.00000000E+00
  0.00000000E+00  0.00000000E+00  0.00000000E+00
  0.00000000E+00  0.00000000E+00  0.00000000E+00
  0.00000000E+00  0.00000000E+00  0.00000000E+00
  0.00000000E+00  0.00000000E+00  0.00000000E+00
  0.00000000E+00  0.00000000E+00  0.00000000E+00
  0.00000000E+00  0.00000000E+00  0.00000000E+00
  0.00000000E+00  0.00000000E+00  0.00000000E+00
  0.00000000E+00  0.00000000E+00  0.00000000E+00
  0.00000000E+00  0.00000000E+00  0.00000000E+00
  0.00000000E+00  0.00000000E+00  0.00000000E+00
  0.00000000E+00  0.00000000E+00  0.00000000E+00
  0.00000000E+00  0.00000000E+00  0.00000000E+00
  0.00000000E+00  0.00000000E+00  0.00000000E+00
  0.00000000E+00  0.00000000E+00  0.00000000E+00
  0.00000000E+00  0.00000000E+00  0.00000000E+00
  0.00000000E+00  0.00000000E+00  0.00000000E+00
  0.00000000E+00  0.00000000E+00  0.00000000E+00
  0.00000000E+00  0.00000000E+00  0.00000000E+00
  0.00000000E+00  0.00000000E+00  0.00000000E+00
  0.00000000E+00  0.00000000E+00  0.00000000E+00
  0.00000000E+00  0.00000000E+00  0.00000000E+00
  0.00000000E+00  0.00000000E+00  0.00000000E+00
  0.00000000E+00  0.00000000E+00  0.00000000E+00
  0.00000000E+00  0.00000000E+00  0.00000000E+00
  0.00000000E+00  0.00000000E+00  0.00000000E+00
  0.00000000E+00  0.00000000E+00  0.00000000E+00
  0.00000000E+00  0.00000000E+00  0.00000000E+00
  0.00000000E+00  0.00000000E+00  0.00000000E+00
  0.00000000E+00  0.00000000E+00  0.00000000E+00
  0.00000000E+00  0.00000000E+00  0.00000000E+00
  0.00000000E+00  0.00000000E+00  0.00000000E+00
  0.00000000E+00  0.00000000E+00  0.00000000E+00
  0.00000000E+00  0.00000000E+00  0.00000000E+00
  0.00000000E+00  0.00000000E+00  0.00000000E+00
  0.00000000E+00  0.00000000E+00  0.00000000E+00
  0.00000000E+00  0.00000000E+00  0.00000000E+00
  0.00000000E+00  0.00000000E+00  0.00000000E+00
  0.00000000E+00  0.00000000E+00  0.00000000E+00
  0.00000000E+00  0.00000000E+00  0.00000000E+00
  0.00000000E+00  0.00000000E+00  0.00000000E+00
  0.00000000E+00  0.00000000E+00  0.00000000E+00
  0.00000000E+00  0.00000000E+00  0.00000000E+00
  0.00000000E+00  0.00000000E+00  0.00000000E+00
  0.00000000E+00  0.00000000E+00  0.00000000E+00
  0.00000000E+00  0.00000000E+00  0.00000000E+00
  0.00000000E+00  0.00000000E+00  0.00000000E+00
  0.00000000E+00  0.00000000E+00  0.00000000E+00
  0.00000000E+00  0.00000000E+00  0.00000000E+00
  0.00000000E+00  0.00000000E+00  0.00000000E+00
  0.00000000E+00  0.00000000E+00  0.00000000E+00
  0.00000000E+00  0.00000000E+00  0.00000000E+00
  0.00000000E+00  0.00000000E+00  0.00000000E+00
  0.00000000E+00  0.00000000E+00  0.00000000E+00
  0.00000000E+00  0.00000000E+00  0.00000000E+00
  0.00000000E+00  0.00000000E+00  0.00000000E+00
  0.00000000E+00  0.00000000E+00  0.00000000E+00
  0.00000000E+00  0.00000000E+00  0.00000000E+00
  0.00000000E+00  0.00000000E+00  0.00000000E+00
  0.00000000E+00  0.00000000E+00  0.00000000E+00
