Ir64 O130                               
   1.00000000000000     
    12.8085319999999996    0.0000000000000000    0.0000000000000000
     0.0000000000000000   12.9404859999999999    0.0000000000000000
     0.0000000000000000    0.0000000000000000   25.8809719999999999
   Ir   O 
    64   130
Selective dynamics
Direct
  0.1250000000000000  0.2500000000000000  0.1875000000000000   F   F   F
  0.3750000000000000  0.2500000000000000  0.1875000000000000   F   F   F
  0.1250000000000000  0.0000000000000000  0.0625000000000000   F   F   F
  0.3750000000000000  0.0000000000000000  0.0625000000000000   F   F   F
  0.0000000000000000  0.2500000000000000  0.0625000000000000   F   F   F
  0.2500000000000000  0.2500000000000000  0.0625000000000000   F   F   F
  0.0000000000000000  0.0000000000000000  0.1875000000000000   F   F   F
  0.2500000000000000  0.0000000000000000  0.1875000000000000   F   F   F
  0.1259356434718182  0.2501203428887288  0.4396375416457254   T   T   T
  0.3759946424750282  0.2507131809048901  0.4393326130566678   T   T   T
  0.1254710170085789  0.0000157173631374  0.3120303059284345   T   T   T
  0.3771379619736698  0.0000069577765106  0.3127641522202287   T   T   T
  0.0002911356552804  0.2498361921728482  0.3134022368766408   T   T   T
  0.2504305475380964  0.2498105175273233  0.3133736692247321   T   T   T
  0.0015308028471260  0.0000071550664826  0.4347615891076195   T   T   T
  0.2514138861275845  0.0000109178288384  0.4351333200429069   T   T   T
  0.6250000000000000  0.2500000000000000  0.1875000000000000   F   F   F
  0.8750000000000000  0.2500000000000000  0.1875000000000000   F   F   F
  0.6250000000000000  0.0000000000000000  0.0625000000000000   F   F   F
  0.8750000000000000  0.0000000000000000  0.0625000000000000   F   F   F
  0.5000000000000000  0.2500000000000000  0.0625000000000000   F   F   F
  0.7500000000000000  0.2500000000000000  0.0625000000000000   F   F   F
  0.5000000000000000  0.0000000000000000  0.1875000000000000   F   F   F
  0.7500000000000000  0.0000000000000000  0.1875000000000000   F   F   F
  0.6258686154375190  0.2511543455544965  0.4390111645747856   T   T   T
  0.8756920112525770  0.2504325741347267  0.4392634629329246   T   T   T
  0.6253243891037801  0.0000010625488237  0.3131186565442753   T   T   T
  0.8736601053440506  0.0000102432852391  0.3126234888100567   T   T   T
  0.5004537444866808  0.2500773720087207  0.3133202958217491   T   T   T
  0.7502618146462101  0.2501382744093386  0.3132615801999797   T   T   T
  0.5012608142501036  0.0000035026263111  0.4420216115596828   T   T   T
  0.7512418776244326  0.0000089557564187  0.4416212736431389   T   T   T
  0.1250000000000000  0.7500000000000000  0.1875000000000000   F   F   F
  0.3750000000000000  0.7500000000000000  0.1875000000000000   F   F   F
  0.1250000000000000  0.5000000000000000  0.0625000000000000   F   F   F
  0.3750000000000000  0.5000000000000000  0.0625000000000000   F   F   F
  0.0000000000000000  0.7500000000000000  0.0625000000000000   F   F   F
  0.2500000000000000  0.7500000000000000  0.0625000000000000   F   F   F
  0.0000000000000000  0.5000000000000000  0.1875000000000000   F   F   F
  0.2500000000000000  0.5000000000000000  0.1875000000000000   F   F   F
  0.1259279459044658  0.7498811696799070  0.4396489509107233   T   T   T
  0.3760002736031006  0.7492952826462641  0.4393318161614960   T   T   T
  0.1252488540757249  0.5000066342797262  0.3121591646227939   T   T   T
  0.3753319418621083  0.5000049616528235  0.3122418307986890   T   T   T
  0.0002896639996344  0.7501865730293901  0.3133968251620483   T   T   T
  0.2504130801844978  0.7502133499577230  0.3133754762305947   T   T   T
  0.0007449805652958  0.5000064957965630  0.4356508679039353   T   T   T
  0.2506266180567742  0.5000167691762061  0.4356403996621215   T   T   T
  0.6250000000000000  0.7500000000000000  0.1875000000000000   F   F   F
  0.8750000000000000  0.7500000000000000  0.1875000000000000   F   F   F
  0.6250000000000000  0.5000000000000000  0.0625000000000000   F   F   F
  0.8750000000000000  0.5000000000000000  0.0625000000000000   F   F   F
  0.5000000000000000  0.7500000000000000  0.0625000000000000   F   F   F
  0.7500000000000000  0.7500000000000000  0.0625000000000000   F   F   F
  0.5000000000000000  0.5000000000000000  0.1875000000000000   F   F   F
  0.7500000000000000  0.5000000000000000  0.1875000000000000   F   F   F
  0.6258866861266422  0.7488427968983059  0.4390053603000242   T   T   T
  0.8756904008860312  0.7496146277683542  0.4392583415291227   T   T   T
  0.6252610978114196  0.4999915786037085  0.3123318003012417   T   T   T
  0.8753841429371354  0.4999947542598663  0.3122318705735023   T   T   T
  0.5004481100756140  0.7499301683340009  0.3133144819604631   T   T   T
  0.7502575349943164  0.7498592846409295  0.3132538585808618   T   T   T
  0.5006968217958336  0.5000048174561467  0.4360111192412493   T   T   T
  0.7508071692144702  0.5000140475501142  0.4359519351578378   T   T   T
  0.0000000000000000  0.2500000000000000  0.1396099999999976   F   F   F
  0.2500000000000000  0.2500000000000000  0.1396099999999976   F   F   F
  0.0000000000000000  0.0000000000000000  0.0146099999999976   F   F   F
  0.2500000000000000  0.0000000000000000  0.0146099999999976   F   F   F
  0.1250000000000000  0.4042200000000022  0.1875000000000000   F   F   F
  0.3750000000000000  0.4042200000000022  0.1875000000000000   F   F   F
  0.1250000000000000  0.1542200000000022  0.0625000000000000   F   F   F
  0.3750000000000000  0.1542200000000022  0.0625000000000000   F   F   F
  0.0000000000000000  0.2500000000000000  0.2353900000000024   F   F   F
  0.2500000000000000  0.2500000000000000  0.2353900000000024   F   F   F
  0.0000000000000000  0.0000000000000000  0.1103900000000024   F   F   F
  0.2500000000000000  0.0000000000000000  0.1103900000000024   F   F   F
  0.1250000000000000  0.0957799999999978  0.1875000000000000   F   F   F
  0.3750000000000000  0.0957799999999978  0.1875000000000000   F   F   F
  0.1250000000000000  0.3457799999999978  0.0625000000000000   F   F   F
  0.3750000000000000  0.3457799999999978  0.0625000000000000   F   F   F
  0.0007319308438814  0.2503779200208647  0.3905969319465096   T   T   T
  0.2508823003708304  0.2502122093480117  0.3904757782304697   T   T   T
 -0.0000324557718564  0.9999909310321725  0.2645076677814164   T   T   T
  0.2508001152528183 -0.0000165922781793  0.2645468073818215   T   T   T
  0.1257621635591631  0.4050066872102296  0.4411896917450869   T   T   T
  0.3753849110254068  0.4053414830376205  0.4415747144504173   T   T   T
  0.1252370257095574  0.1541009084210055  0.3132235609188300   T   T   T
  0.3760289836374662  0.1541080347571930  0.3131507809819734   T   T   T
  0.0004742099111744  0.2501271227272221  0.4852918606419370   T   T   T
  0.2512446415758104  0.2507784910434219  0.4853788381850535   T   T   T
  0.0001264805291587  0.0000376054790880  0.3594079098651350   T   T   T
  0.2509358970721814  0.0000292644422796  0.3596762791759512   T   T   T
  0.1263338866905941  0.0948730366379786  0.4407246536441556   T   T   T
  0.3755814222637873  0.0959644675347593  0.4392518525099123   T   T   T
  0.1251362225234362  0.3456149630522802  0.3132423431147428   T   T   T
  0.3755387764971814  0.3457611670139122  0.3132604829017189   T   T   T
  0.5000000000000000  0.2500000000000000  0.1396099999999976   F   F   F
  0.7500000000000000  0.2500000000000000  0.1396099999999976   F   F   F
  0.5000000000000000  0.0000000000000000  0.0146099999999976   F   F   F
  0.7500000000000000  0.0000000000000000  0.0146099999999976   F   F   F
  0.6250000000000000  0.4042200000000022  0.1875000000000000   F   F   F
  0.8750000000000000  0.4042200000000022  0.1875000000000000   F   F   F
  0.6250000000000000  0.1542200000000022  0.0625000000000000   F   F   F
  0.8750000000000000  0.1542200000000022  0.0625000000000000   F   F   F
  0.5000000000000000  0.2500000000000000  0.2353900000000024   F   F   F
  0.7500000000000000  0.2500000000000000  0.2353900000000024   F   F   F
  0.5000000000000000  0.0000000000000000  0.1103900000000024   F   F   F
  0.7500000000000000  0.0000000000000000  0.1103900000000024   F   F   F
  0.6250000000000000  0.0957799999999978  0.1875000000000000   F   F   F
  0.8750000000000000  0.0957799999999978  0.1875000000000000   F   F   F
  0.6250000000000000  0.3457799999999978  0.0625000000000000   F   F   F
  0.8750000000000000  0.3457799999999978  0.0625000000000000   F   F   F
  0.5007189882013325  0.2513159292246814  0.3903093194150256   T   T   T
  0.7506733107667981  0.2515470021468063  0.3902161119729946   T   T   T
  0.5005558098934458 -0.0000022459082081  0.2647636622789809   T   T   T
  0.7499247505938967  0.0000042607128438  0.2646826825309948   T   T   T
  0.6258350614434388  0.4055559713104434  0.4415571001992679   T   T   T
  0.8757697070962877  0.4051362291459470  0.4416042723920079   T   T   T
  0.6252228033158397  0.1541677398578396  0.3129290158047222   T   T   T
  0.8750849630760861  0.1542098738091557  0.3130535785195545   T   T   T
  0.5013760927406706  0.2521895165914109  0.4848549673729271   T   T   T
  0.7504828764817091  0.2507981342076030  0.4848640828633580   T   T   T
  0.5003659616163558  0.0000008426625388  0.3613767880121036   T   T   T
  0.7505781649838692  0.0000238744001453  0.3611763879863831   T   T   T
  0.6259330913590105  0.0960337656385243  0.4352164008717817   T   T   T
  0.8769429095818280  0.0957007554510091  0.4382687881765617   T   T   T
  0.6251200946318765  0.3458364206102971  0.3133148190329627   T   T   T
  0.8755170239836287  0.3457892784809783  0.3132364067006109   T   T   T
  0.7494685037377945 -0.0000102775618593  0.5109367818658552   T   T   T
  0.0000000000000000  0.7500000000000000  0.1396099999999976   F   F   F
  0.2500000000000000  0.7500000000000000  0.1396099999999976   F   F   F
  0.0000000000000000  0.5000000000000000  0.0146099999999976   F   F   F
  0.2500000000000000  0.5000000000000000  0.0146099999999976   F   F   F
  0.1250000000000000  0.9042200000000022  0.1875000000000000   F   F   F
  0.3750000000000000  0.9042200000000022  0.1875000000000000   F   F   F
  0.1250000000000000  0.6542200000000022  0.0625000000000000   F   F   F
  0.3750000000000000  0.6542200000000022  0.0625000000000000   F   F   F
  0.0000000000000000  0.7500000000000000  0.2353900000000024   F   F   F
  0.2500000000000000  0.7500000000000000  0.2353900000000024   F   F   F
  0.0000000000000000  0.5000000000000000  0.1103900000000024   F   F   F
  0.2500000000000000  0.5000000000000000  0.1103900000000024   F   F   F
  0.1250000000000000  0.5957799999999978  0.1875000000000000   F   F   F
  0.3750000000000000  0.5957799999999978  0.1875000000000000   F   F   F
  0.1250000000000000  0.8457799999999978  0.0625000000000000   F   F   F
  0.3750000000000000  0.8457799999999978  0.0625000000000000   F   F   F
  0.0007530671244703  0.7496631939887977  0.3905898507597865   T   T   T
  0.2508394710382031  0.7498282102907863  0.3904761721209813   T   T   T
  0.0002200505822247  0.4999613892654924  0.2642621701545213   T   T   T
  0.2503076033958909  0.4999642944334088  0.2643241036065188   T   T   T
  0.1263558148721112  0.9051498688221036  0.4407458173289664   T   T   T
  0.3755875208974406  0.9040503827946226  0.4392476216112331   T   T   T
  0.1251379549402472  0.6544093616078390  0.3132462452701333   T   T   T
  0.3755127889200975  0.6542610890343918  0.3132655823029827   T   T   T
  0.0004726687391728  0.7499049918529487  0.4852956647142174   T   T   T
  0.2512659928830097  0.7491150391990860  0.4853886264626407   T   T   T
  0.0003423487885635  0.4999868142118832  0.3597246550373883   T   T   T
  0.2502854650290514  0.5000113980799229  0.3597129668469278   T   T   T
  0.1257414683475443  0.5949919076971205  0.4412052435317144   T   T   T
  0.3753905167547920  0.5946508356561094  0.4415851548526517   T   T   T
  0.1252452101400775  0.8459546634662224  0.3132320934683901   T   T   T
  0.3760148882607020  0.8459240434938888  0.3131453053127483   T   T   T
  0.5000000000000000  0.7500000000000000  0.1396099999999976   F   F   F
  0.7500000000000000  0.7500000000000000  0.1396099999999976   F   F   F
  0.5000000000000000  0.5000000000000000  0.0146099999999976   F   F   F
  0.7500000000000000  0.5000000000000000  0.0146099999999976   F   F   F
  0.6250000000000000  0.9042200000000022  0.1875000000000000   F   F   F
  0.8750000000000000  0.9042200000000022  0.1875000000000000   F   F   F
  0.6250000000000000  0.6542200000000022  0.0625000000000000   F   F   F
  0.8750000000000000  0.6542200000000022  0.0625000000000000   F   F   F
  0.5000000000000000  0.7500000000000000  0.2353900000000024   F   F   F
  0.7500000000000000  0.7500000000000000  0.2353900000000024   F   F   F
  0.5000000000000000  0.5000000000000000  0.1103900000000024   F   F   F
  0.7500000000000000  0.5000000000000000  0.1103900000000024   F   F   F
  0.6250000000000000  0.5957799999999978  0.1875000000000000   F   F   F
  0.8750000000000000  0.5957799999999978  0.1875000000000000   F   F   F
  0.6250000000000000  0.8457799999999978  0.0625000000000000   F   F   F
  0.8750000000000000  0.8457799999999978  0.0625000000000000   F   F   F
  0.5007246704225882  0.7486354185567208  0.3903096491097788   T   T   T
  0.7506683947521267  0.7485002766855456  0.3902099010102664   T   T   T
  0.5002553761604719  0.5000055892342067  0.2643268148974076   T   T   T
  0.7501659737638349  0.4999981983618109  0.2644129294229779   T   T   T
  0.6259491904468385  0.9039660323001656  0.4351891539486354   T   T   T
  0.8769615509973321  0.9042705513439504  0.4382584857073156   T   T   T
  0.6251332858260096  0.6541769005708378  0.3133043686733434   T   T   T
  0.8755021736118219  0.6542318164398090  0.3132430290194024   T   T   T
  0.5013956461957777  0.7478506218252550  0.4848391289895656   T   T   T
  0.7504847371051265  0.7491905975954315  0.4848580357244929   T   T   T
  0.5001154606137992  0.4999705914312756  0.3599536760630499   T   T   T
  0.7505372311848950  0.4999763852015682  0.3599326065083056   T   T   T
  0.6258128971900667  0.5944596497942394  0.4415698655987940   T   T   T
  0.8757770485132788  0.5948711735088409  0.4415919071313541   T   T   T
  0.6252526113684042  0.8458471215432010  0.3128947576844503   T   T   T
  0.8750677468413365  0.8458116283896986  0.3130441358204571   T   T   T
  0.5040010854945741  0.0000381729601983  0.5113378665847600   T   T   T
 
  0.00000000E+00  0.00000000E+00  0.00000000E+00
  0.00000000E+00  0.00000000E+00  0.00000000E+00
  0.00000000E+00  0.00000000E+00  0.00000000E+00
  0.00000000E+00  0.00000000E+00  0.00000000E+00
  0.00000000E+00  0.00000000E+00  0.00000000E+00
  0.00000000E+00  0.00000000E+00  0.00000000E+00
  0.00000000E+00  0.00000000E+00  0.00000000E+00
  0.00000000E+00  0.00000000E+00  0.00000000E+00
  0.00000000E+00  0.00000000E+00  0.00000000E+00
  0.00000000E+00  0.00000000E+00  0.00000000E+00
  0.00000000E+00  0.00000000E+00  0.00000000E+00
  0.00000000E+00  0.00000000E+00  0.00000000E+00
  0.00000000E+00  0.00000000E+00  0.00000000E+00
  0.00000000E+00  0.00000000E+00  0.00000000E+00
  0.00000000E+00  0.00000000E+00  0.00000000E+00
  0.00000000E+00  0.00000000E+00  0.00000000E+00
  0.00000000E+00  0.00000000E+00  0.00000000E+00
  0.00000000E+00  0.00000000E+00  0.00000000E+00
  0.00000000E+00  0.00000000E+00  0.00000000E+00
  0.00000000E+00  0.00000000E+00  0.00000000E+00
  0.00000000E+00  0.00000000E+00  0.00000000E+00
  0.00000000E+00  0.00000000E+00  0.00000000E+00
  0.00000000E+00  0.00000000E+00  0.00000000E+00
  0.00000000E+00  0.00000000E+00  0.00000000E+00
  0.00000000E+00  0.00000000E+00  0.00000000E+00
  0.00000000E+00  0.00000000E+00  0.00000000E+00
  0.00000000E+00  0.00000000E+00  0.00000000E+00
  0.00000000E+00  0.00000000E+00  0.00000000E+00
  0.00000000E+00  0.00000000E+00  0.00000000E+00
  0.00000000E+00  0.00000000E+00  0.00000000E+00
  0.00000000E+00  0.00000000E+00  0.00000000E+00
  0.00000000E+00  0.00000000E+00  0.00000000E+00
  0.00000000E+00  0.00000000E+00  0.00000000E+00
  0.00000000E+00  0.00000000E+00  0.00000000E+00
  0.00000000E+00  0.00000000E+00  0.00000000E+00
  0.00000000E+00  0.00000000E+00  0.00000000E+00
  0.00000000E+00  0.00000000E+00  0.00000000E+00
  0.00000000E+00  0.00000000E+00  0.00000000E+00
  0.00000000E+00  0.00000000E+00  0.00000000E+00
  0.00000000E+00  0.00000000E+00  0.00000000E+00
  0.00000000E+00  0.00000000E+00  0.00000000E+00
  0.00000000E+00  0.00000000E+00  0.00000000E+00
  0.00000000E+00  0.00000000E+00  0.00000000E+00
  0.00000000E+00  0.00000000E+00  0.00000000E+00
  0.00000000E+00  0.00000000E+00  0.00000000E+00
  0.00000000E+00  0.00000000E+00  0.00000000E+00
  0.00000000E+00  0.00000000E+00  0.00000000E+00
  0.00000000E+00  0.00000000E+00  0.00000000E+00
  0.00000000E+00  0.00000000E+00  0.00000000E+00
  0.00000000E+00  0.00000000E+00  0.00000000E+00
  0.00000000E+00  0.00000000E+00  0.00000000E+00
  0.00000000E+00  0.00000000E+00  0.00000000E+00
  0.00000000E+00  0.00000000E+00  0.00000000E+00
  0.00000000E+00  0.00000000E+00  0.00000000E+00
  0.00000000E+00  0.00000000E+00  0.00000000E+00
  0.00000000E+00  0.00000000E+00  0.00000000E+00
  0.00000000E+00  0.00000000E+00  0.00000000E+00
  0.00000000E+00  0.00000000E+00  0.00000000E+00
  0.00000000E+00  0.00000000E+00  0.00000000E+00
  0.00000000E+00  0.00000000E+00  0.00000000E+00
  0.00000000E+00  0.00000000E+00  0.00000000E+00
  0.00000000E+00  0.00000000E+00  0.00000000E+00
  0.00000000E+00  0.00000000E+00  0.00000000E+00
  0.00000000E+00  0.00000000E+00  0.00000000E+00
  0.00000000E+00  0.00000000E+00  0.00000000E+00
  0.00000000E+00  0.00000000E+00  0.00000000E+00
  0.00000000E+00  0.00000000E+00  0.00000000E+00
  0.00000000E+00  0.00000000E+00  0.00000000E+00
  0.00000000E+00  0.00000000E+00  0.00000000E+00
  0.00000000E+00  0.00000000E+00  0.00000000E+00
  0.00000000E+00  0.00000000E+00  0.00000000E+00
  0.00000000E+00  0.00000000E+00  0.00000000E+00
  0.00000000E+00  0.00000000E+00  0.00000000E+00
  0.00000000E+00  0.00000000E+00  0.00000000E+00
  0.00000000E+00  0.00000000E+00  0.00000000E+00
  0.00000000E+00  0.00000000E+00  0.00000000E+00
  0.00000000E+00  0.00000000E+00  0.00000000E+00
  0.00000000E+00  0.00000000E+00  0.00000000E+00
  0.00000000E+00  0.00000000E+00  0.00000000E+00
  0.00000000E+00  0.00000000E+00  0.00000000E+00
  0.00000000E+00  0.00000000E+00  0.00000000E+00
  0.00000000E+00  0.00000000E+00  0.00000000E+00
  0.00000000E+00  0.00000000E+00  0.00000000E+00
  0.00000000E+00  0.00000000E+00  0.00000000E+00
  0.00000000E+00  0.00000000E+00  0.00000000E+00
  0.00000000E+00  0.00000000E+00  0.00000000E+00
  0.00000000E+00  0.00000000E+00  0.00000000E+00
  0.00000000E+00  0.00000000E+00  0.00000000E+00
  0.00000000E+00  0.00000000E+00  0.00000000E+00
  0.00000000E+00  0.00000000E+00  0.00000000E+00
  0.00000000E+00  0.00000000E+00  0.00000000E+00
  0.00000000E+00  0.00000000E+00  0.00000000E+00
  0.00000000E+00  0.00000000E+00  0.00000000E+00
  0.00000000E+00  0.00000000E+00  0.00000000E+00
  0.00000000E+00  0.00000000E+00  0.00000000E+00
  0.00000000E+00  0.00000000E+00  0.00000000E+00
  0.00000000E+00  0.00000000E+00  0.00000000E+00
  0.00000000E+00  0.00000000E+00  0.00000000E+00
  0.00000000E+00  0.00000000E+00  0.00000000E+00
  0.00000000E+00  0.00000000E+00  0.00000000E+00
  0.00000000E+00  0.00000000E+00  0.00000000E+00
  0.00000000E+00  0.00000000E+00  0.00000000E+00
  0.00000000E+00  0.00000000E+00  0.00000000E+00
  0.00000000E+00  0.00000000E+00  0.00000000E+00
  0.00000000E+00  0.00000000E+00  0.00000000E+00
  0.00000000E+00  0.00000000E+00  0.00000000E+00
  0.00000000E+00  0.00000000E+00  0.00000000E+00
  0.00000000E+00  0.00000000E+00  0.00000000E+00
  0.00000000E+00  0.00000000E+00  0.00000000E+00
  0.00000000E+00  0.00000000E+00  0.00000000E+00
  0.00000000E+00  0.00000000E+00  0.00000000E+00
  0.00000000E+00  0.00000000E+00  0.00000000E+00
  0.00000000E+00  0.00000000E+00  0.00000000E+00
  0.00000000E+00  0.00000000E+00  0.00000000E+00
  0.00000000E+00  0.00000000E+00  0.00000000E+00
  0.00000000E+00  0.00000000E+00  0.00000000E+00
  0.00000000E+00  0.00000000E+00  0.00000000E+00
  0.00000000E+00  0.00000000E+00  0.00000000E+00
  0.00000000E+00  0.00000000E+00  0.00000000E+00
  0.00000000E+00  0.00000000E+00  0.00000000E+00
  0.00000000E+00  0.00000000E+00  0.00000000E+00
  0.00000000E+00  0.00000000E+00  0.00000000E+00
  0.00000000E+00  0.00000000E+00  0.00000000E+00
  0.00000000E+00  0.00000000E+00  0.00000000E+00
  0.00000000E+00  0.00000000E+00  0.00000000E+00
  0.00000000E+00  0.00000000E+00  0.00000000E+00
  0.00000000E+00  0.00000000E+00  0.00000000E+00
  0.00000000E+00  0.00000000E+00  0.00000000E+00
  0.00000000E+00  0.00000000E+00  0.00000000E+00
  0.00000000E+00  0.00000000E+00  0.00000000E+00
  0.00000000E+00  0.00000000E+00  0.00000000E+00
  0.00000000E+00  0.00000000E+00  0.00000000E+00
  0.00000000E+00  0.00000000E+00  0.00000000E+00
  0.00000000E+00  0.00000000E+00  0.00000000E+00
  0.00000000E+00  0.00000000E+00  0.00000000E+00
  0.00000000E+00  0.00000000E+00  0.00000000E+00
  0.00000000E+00  0.00000000E+00  0.00000000E+00
  0.00000000E+00  0.00000000E+00  0.00000000E+00
  0.00000000E+00  0.00000000E+00  0.00000000E+00
  0.00000000E+00  0.00000000E+00  0.00000000E+00
  0.00000000E+00  0.00000000E+00  0.00000000E+00
  0.00000000E+00  0.00000000E+00  0.00000000E+00
  0.00000000E+00  0.00000000E+00  0.00000000E+00
  0.00000000E+00  0.00000000E+00  0.00000000E+00
  0.00000000E+00  0.00000000E+00  0.00000000E+00
  0.00000000E+00  0.00000000E+00  0.00000000E+00
  0.00000000E+00  0.00000000E+00  0.00000000E+00
  0.00000000E+00  0.00000000E+00  0.00000000E+00
  0.00000000E+00  0.00000000E+00  0.00000000E+00
  0.00000000E+00  0.00000000E+00  0.00000000E+00
  0.00000000E+00  0.00000000E+00  0.00000000E+00
  0.00000000E+00  0.00000000E+00  0.00000000E+00
  0.00000000E+00  0.00000000E+00  0.00000000E+00
  0.00000000E+00  0.00000000E+00  0.00000000E+00
  0.00000000E+00  0.00000000E+00  0.00000000E+00
  0.00000000E+00  0.00000000E+00  0.00000000E+00
  0.00000000E+00  0.00000000E+00  0.00000000E+00
  0.00000000E+00  0.00000000E+00  0.00000000E+00
  0.00000000E+00  0.00000000E+00  0.00000000E+00
  0.00000000E+00  0.00000000E+00  0.00000000E+00
  0.00000000E+00  0.00000000E+00  0.00000000E+00
  0.00000000E+00  0.00000000E+00  0.00000000E+00
  0.00000000E+00  0.00000000E+00  0.00000000E+00
  0.00000000E+00  0.00000000E+00  0.00000000E+00
  0.00000000E+00  0.00000000E+00  0.00000000E+00
  0.00000000E+00  0.00000000E+00  0.00000000E+00
  0.00000000E+00  0.00000000E+00  0.00000000E+00
  0.00000000E+00  0.00000000E+00  0.00000000E+00
  0.00000000E+00  0.00000000E+00  0.00000000E+00
  0.00000000E+00  0.00000000E+00  0.00000000E+00
  0.00000000E+00  0.00000000E+00  0.00000000E+00
  0.00000000E+00  0.00000000E+00  0.00000000E+00
  0.00000000E+00  0.00000000E+00  0.00000000E+00
  0.00000000E+00  0.00000000E+00  0.00000000E+00
  0.00000000E+00  0.00000000E+00  0.00000000E+00
  0.00000000E+00  0.00000000E+00  0.00000000E+00
  0.00000000E+00  0.00000000E+00  0.00000000E+00
  0.00000000E+00  0.00000000E+00  0.00000000E+00
  0.00000000E+00  0.00000000E+00  0.00000000E+00
  0.00000000E+00  0.00000000E+00  0.00000000E+00
  0.00000000E+00  0.00000000E+00  0.00000000E+00
  0.00000000E+00  0.00000000E+00  0.00000000E+00
  0.00000000E+00  0.00000000E+00  0.00000000E+00
  0.00000000E+00  0.00000000E+00  0.00000000E+00
  0.00000000E+00  0.00000000E+00  0.00000000E+00
  0.00000000E+00  0.00000000E+00  0.00000000E+00
  0.00000000E+00  0.00000000E+00  0.00000000E+00
  0.00000000E+00  0.00000000E+00  0.00000000E+00
  0.00000000E+00  0.00000000E+00  0.00000000E+00
  0.00000000E+00  0.00000000E+00  0.00000000E+00
  0.00000000E+00  0.00000000E+00  0.00000000E+00
  0.00000000E+00  0.00000000E+00  0.00000000E+00
  0.00000000E+00  0.00000000E+00  0.00000000E+00
  0.00000000E+00  0.00000000E+00  0.00000000E+00
