Ir64 O130
1.0
12.808532 0.000000 0.000000
0.000000 12.940486 0.000000
0.000000 0.000000 25.880972
Ir O
64 130
Selective dynamics
direct
0.125000 0.250000 0.187500 F F F Ir
0.375000 0.250000 0.187500 F F F Ir
0.125000 0.000000 0.062500 F F F Ir
0.375000 0.000000 0.062500 F F F Ir
0.000000 0.250000 0.062500 F F F Ir
0.250000 0.250000 0.062500 F F F Ir
0.000000 0.000000 0.187500 F F F Ir
0.250000 0.000000 0.187500 F F F Ir
0.124952 0.249989 0.439504 T T T Ir
0.375038 0.249992 0.439508 T T T Ir
0.124794 0.999998 0.311940 T T T Ir
0.375206 0.000007 0.311964 T T T Ir
0.999979 0.249897 0.313214 T T T Ir
0.250004 0.249915 0.313306 T T T Ir
0.000030 0.999994 0.434661 T T T Ir
0.250002 0.000007 0.435354 T T T Ir
0.625000 0.250000 0.187500 F F F Ir
0.875000 0.250000 0.187500 F F F Ir
0.625000 0.000000 0.062500 F F F Ir
0.875000 0.000000 0.062500 F F F Ir
0.500000 0.250000 0.062500 F F F Ir
0.750000 0.250000 0.062500 F F F Ir
0.500000 0.000000 0.187500 F F F Ir
0.750000 0.000000 0.187500 F F F Ir
0.625071 0.250514 0.439090 T T T Ir
0.874925 0.250527 0.439076 T T T Ir
0.626563 0.000007 0.312650 T T T Ir
0.873456 0.000010 0.312642 T T T Ir
0.500055 0.249897 0.313212 T T T Ir
0.750014 0.250320 0.313169 T T T Ir
0.499973 0.000005 0.434666 T T T Ir
0.750015 0.999995 0.442601 T T T Ir
0.125000 0.750000 0.187500 F F F Ir
0.375000 0.750000 0.187500 F F F Ir
0.125000 0.500000 0.062500 F F F Ir
0.375000 0.500000 0.062500 F F F Ir
0.000000 0.750000 0.062500 F F F Ir
0.250000 0.750000 0.062500 F F F Ir
0.000000 0.500000 0.187500 F F F Ir
0.250000 0.500000 0.187500 F F F Ir
0.124960 0.750017 0.439504 T T T Ir
0.375059 0.750024 0.439505 T T T Ir
0.124967 0.499995 0.312057 T T T Ir
0.375042 0.499991 0.312056 T T T Ir
0.999969 0.750106 0.313215 T T T Ir
0.250011 0.750078 0.313305 T T T Ir
0.000097 0.500009 0.435444 T T T Ir
0.250013 0.500008 0.435262 T T T Ir
0.625000 0.750000 0.187500 F F F Ir
0.875000 0.750000 0.187500 F F F Ir
0.625000 0.500000 0.062500 F F F Ir
0.875000 0.500000 0.062500 F F F Ir
0.500000 0.750000 0.062500 F F F Ir
0.750000 0.750000 0.062500 F F F Ir
0.500000 0.500000 0.187500 F F F Ir
0.750000 0.500000 0.187500 F F F Ir
0.625083 0.749487 0.439085 T T T Ir
0.874928 0.749481 0.439072 T T T Ir
0.624901 0.499989 0.312182 T T T Ir
0.875080 0.500003 0.312185 T T T Ir
0.500049 0.750097 0.313205 T T T Ir
0.749999 0.749691 0.313182 T T T Ir
0.499908 0.500003 0.435456 T T T Ir
0.749999 0.500001 0.435639 T T T Ir
0.000000 0.250000 0.139610 F F F O
0.250000 0.250000 0.139610 F F F O
0.000000 0.000000 0.014610 F F F O
0.250000 0.000000 0.014610 F F F O
0.125000 0.404220 0.187500 F F F O
0.375000 0.404220 0.187500 F F F O
0.125000 0.154220 0.062500 F F F O
0.375000 0.154220 0.062500 F F F O
0.000000 0.250000 0.235390 F F F O
0.250000 0.250000 0.235390 F F F O
0.000000 0.000000 0.110390 F F F O
0.250000 0.000000 0.110390 F F F O
0.125000 0.095780 0.187500 F F F O
0.375000 0.095780 0.187500 F F F O
0.125000 0.345780 0.062500 F F F O
0.375000 0.345780 0.062500 F F F O
0.000108 0.250046 0.390401 T T T O
0.250003 0.249942 0.390424 T T T O
0.999411 0.999963 0.264375 T T T O
0.250025 0.000003 0.264242 T T T O
0.125265 0.404918 0.440901 T T T O
0.374755 0.404919 0.440885 T T T O
0.124755 0.154163 0.312953 T T T O
0.375259 0.154161 0.312966 T T T O
0.999646 0.250384 0.485123 T T T O
0.250004 0.249325 0.485458 T T T O
0.999801 0.000010 0.359288 T T T O
0.249988 0.999998 0.359606 T T T O
0.125086 0.094957 0.440524 T T T O
0.374909 0.094941 0.440531 T T T O
0.124850 0.345624 0.313020 T T T O
0.375172 0.345624 0.313008 T T T O
0.500000 0.250000 0.139610 F F F O
0.750000 0.250000 0.139610 F F F O
0.500000 0.000000 0.014610 F F F O
0.750000 0.000000 0.014610 F F F O
0.625000 0.404220 0.187500 F F F O
0.875000 0.404220 0.187500 F F F O
0.625000 0.154220 0.062500 F F F O
0.875000 0.154220 0.062500 F F F O
0.500000 0.250000 0.235390 F F F O
0.750000 0.250000 0.235390 F F F O
0.500000 0.000000 0.110390 F F F O
0.750000 0.000000 0.110390 F F F O
0.625000 0.095780 0.187500 F F F O
0.875000 0.095780 0.187500 F F F O
0.625000 0.345780 0.062500 F F F O
0.875000 0.345780 0.062500 F F F O
0.499924 0.250035 0.390394 T T T O
0.750000 0.251756 0.390181 T T T O
0.500595 0.999997 0.264391 T T T O
0.750007 0.999997 0.264422 T T T O
0.624958 0.405262 0.441140 T T T O
0.875053 0.405244 0.441107 T T T O
0.625344 0.154356 0.312957 T T T O
0.874689 0.154367 0.312941 T T T O
0.500331 0.250371 0.485145 T T T O
0.750022 0.251720 0.484859 T T T O
0.500206 0.999982 0.359277 T T T O
0.750012 0.999995 0.361449 T T T O
0.624409 0.095684 0.438385 T T T O
0.875620 0.095683 0.438386 T T T O
0.624736 0.345855 0.312995 T T T O
0.875274 0.345861 0.313012 T T T O
0.750106 0.000000 0.512065 T T T O
0.000000 0.750000 0.139610 F F F O
0.250000 0.750000 0.139610 F F F O
0.000000 0.500000 0.014610 F F F O
0.250000 0.500000 0.014610 F F F O
0.125000 0.904220 0.187500 F F F O
0.375000 0.904220 0.187500 F F F O
0.125000 0.654220 0.062500 F F F O
0.375000 0.654220 0.062500 F F F O
0.000000 0.750000 0.235390 F F F O
0.250000 0.750000 0.235390 F F F O
0.000000 0.500000 0.110390 F F F O
0.250000 0.500000 0.110390 F F F O
0.125000 0.595780 0.187500 F F F O
0.375000 0.595780 0.187500 F F F O
0.125000 0.845780 0.062500 F F F O
0.375000 0.845780 0.062500 F F F O
0.000075 0.749938 0.390401 T T T O
0.250015 0.750016 0.390428 T T T O
0.999951 0.499997 0.264227 T T T O
0.250000 0.499990 0.264201 T T T O
0.125104 0.905061 0.440534 T T T O
0.374940 0.905072 0.440541 T T T O
0.124844 0.654372 0.313026 T T T O
0.375160 0.654358 0.312992 T T T O
0.999656 0.749657 0.485113 T T T O
0.250002 0.750681 0.485454 T T T O
0.000072 0.500010 0.359593 T T T O
0.250007 0.499983 0.359548 T T T O
0.125263 0.595093 0.440900 T T T O
0.374763 0.595096 0.440889 T T T O
0.124760 0.845838 0.312959 T T T O
0.375262 0.845826 0.312970 T T T O
0.500000 0.750000 0.139610 F F F O
0.750000 0.750000 0.139610 F F F O
0.500000 0.500000 0.014610 F F F O
0.750000 0.500000 0.014610 F F F O
0.625000 0.904220 0.187500 F F F O
0.875000 0.904220 0.187500 F F F O
0.625000 0.654220 0.062500 F F F O
0.875000 0.654220 0.062500 F F F O
0.500000 0.750000 0.235390 F F F O
0.750000 0.750000 0.235390 F F F O
0.500000 0.500000 0.110390 F F F O
0.750000 0.500000 0.110390 F F F O
0.625000 0.595780 0.187500 F F F O
0.875000 0.595780 0.187500 F F F O
0.625000 0.845780 0.062500 F F F O
0.875000 0.845780 0.062500 F F F O
0.499927 0.749971 0.390389 T T T O
0.749981 0.748307 0.390173 T T T O
0.500064 0.499989 0.264219 T T T O
0.750009 0.499994 0.264376 T T T O
0.624409 0.904310 0.438383 T T T O
0.875640 0.904304 0.438386 T T T O
0.624733 0.654139 0.312995 T T T O
0.875266 0.654152 0.313006 T T T O
0.500335 0.749651 0.485136 T T T O
0.750022 0.748281 0.484838 T T T O
0.499955 0.499981 0.359590 T T T O
0.749965 0.500003 0.359770 T T T O
0.624958 0.594735 0.441140 T T T O
0.875036 0.594764 0.441101 T T T O
0.625324 0.845643 0.312942 T T T O
0.874678 0.845642 0.312941 T T T O
0.416890 0.083116 0.516157 T T T O
