Ir64 O137
1.0
12.808532 0.000000 0.000000
0.000000 12.940486 0.000000
0.000000 0.000000 25.880972
Ir O
64 137
Selective dynamics
direct
0.125000 0.250000 0.187500 F F F Ir
0.375000 0.250000 0.187500 F F F Ir
0.125000 0.000000 0.062500 F F F Ir
0.375000 0.000000 0.062500 F F F Ir
0.000000 0.250000 0.062500 F F F Ir
0.250000 0.250000 0.062500 F F F Ir
0.000000 0.000000 0.187500 F F F Ir
0.250000 0.000000 0.187500 F F F Ir
0.125001 0.248754 0.438159 T T T Ir
0.374996 0.248566 0.438137 T T T Ir
0.124984 0.999352 0.312762 T T T Ir
0.375076 0.999331 0.312850 T T T Ir
0.000001 0.249389 0.312995 T T T Ir
0.250015 0.249384 0.312978 T T T Ir
0.999878 0.998632 0.441107 T T T Ir
0.249706 0.998658 0.441320 T T T Ir
0.625000 0.250000 0.187500 F F F Ir
0.875000 0.250000 0.187500 F F F Ir
0.625000 0.000000 0.062500 F F F Ir
0.875000 0.000000 0.062500 F F F Ir
0.500000 0.250000 0.062500 F F F Ir
0.750000 0.250000 0.062500 F F F Ir
0.500000 0.000000 0.187500 F F F Ir
0.750000 0.000000 0.187500 F F F Ir
0.624964 0.248552 0.438120 T T T Ir
0.874916 0.248745 0.438156 T T T Ir
0.624935 0.999347 0.312854 T T T Ir
0.874966 0.999334 0.312761 T T T Ir
0.500012 0.249320 0.312927 T T T Ir
0.749978 0.249376 0.312966 T T T Ir
0.499917 0.998679 0.441713 T T T Ir
0.750095 0.998645 0.441294 T T T Ir
0.125000 0.750000 0.187500 F F F Ir
0.375000 0.750000 0.187500 F F F Ir
0.125000 0.500000 0.062500 F F F Ir
0.375000 0.500000 0.062500 F F F Ir
0.000000 0.750000 0.062500 F F F Ir
0.250000 0.750000 0.062500 F F F Ir
0.000000 0.500000 0.187500 F F F Ir
0.250000 0.500000 0.187500 F F F Ir
0.124971 0.748552 0.438051 T T T Ir
0.374976 0.748659 0.438112 T T T Ir
0.124903 0.499278 0.313076 T T T Ir
0.374941 0.499322 0.312979 T T T Ir
0.000004 0.749247 0.312952 T T T Ir
0.249983 0.749297 0.312968 T T T Ir
0.999991 0.498694 0.442134 T T T Ir
0.250208 0.498704 0.441770 T T T Ir
0.625000 0.750000 0.187500 F F F Ir
0.875000 0.750000 0.187500 F F F Ir
0.625000 0.500000 0.062500 F F F Ir
0.875000 0.500000 0.062500 F F F Ir
0.500000 0.750000 0.062500 F F F Ir
0.750000 0.750000 0.062500 F F F Ir
0.500000 0.500000 0.187500 F F F Ir
0.750000 0.500000 0.187500 F F F Ir
0.624931 0.748668 0.438096 T T T Ir
0.874997 0.748554 0.438051 T T T Ir
0.625045 0.499327 0.312984 T T T Ir
0.875122 0.499280 0.313072 T T T Ir
0.499975 0.749300 0.312932 T T T Ir
0.749998 0.749304 0.312974 T T T Ir
0.500006 0.498623 0.441484 T T T Ir
0.749794 0.498705 0.441763 T T T Ir
0.000000 0.250000 0.139610 F F F O
0.250000 0.250000 0.139610 F F F O
0.000000 0.000000 0.014610 F F F O
0.250000 0.000000 0.014610 F F F O
0.125000 0.404220 0.187500 F F F O
0.375000 0.404220 0.187500 F F F O
0.125000 0.154220 0.062500 F F F O
0.375000 0.154220 0.062500 F F F O
0.000000 0.250000 0.235390 F F F O
0.250000 0.250000 0.235390 F F F O
0.000000 0.000000 0.110390 F F F O
0.250000 0.000000 0.110390 F F F O
0.125000 0.095780 0.187500 F F F O
0.375000 0.095780 0.187500 F F F O
0.125000 0.345780 0.062500 F F F O
0.375000 0.345780 0.062500 F F F O
0.999949 0.249345 0.389668 T T T O
0.250002 0.248838 0.389602 T T T O
0.000003 0.999833 0.264930 T T T O
0.250076 0.999655 0.264837 T T T O
0.125006 0.403129 0.437178 T T T O
0.375270 0.403021 0.436395 T T T O
0.124948 0.153365 0.312532 T T T O
0.375092 0.153324 0.312529 T T T O
0.999981 0.247902 0.483579 T T T O
0.250009 0.248504 0.483750 T T T O
0.999970 0.999271 0.360739 T T T O
0.250003 0.998802 0.360836 T T T O
0.124742 0.094203 0.435938 T T T O
0.374856 0.094131 0.436702 T T T O
0.124821 0.345405 0.312917 T T T O
0.375179 0.345348 0.312789 T T T O
0.500000 0.250000 0.139610 F F F O
0.750000 0.250000 0.139610 F F F O
0.500000 0.000000 0.014610 F F F O
0.750000 0.000000 0.014610 F F F O
0.625000 0.404220 0.187500 F F F O
0.875000 0.404220 0.187500 F F F O
0.625000 0.154220 0.062500 F F F O
0.875000 0.154220 0.062500 F F F O
0.500000 0.250000 0.235390 F F F O
0.750000 0.250000 0.235390 F F F O
0.500000 0.000000 0.110390 F F F O
0.750000 0.000000 0.110390 F F F O
0.625000 0.095780 0.187500 F F F O
0.875000 0.095780 0.187500 F F F O
0.625000 0.345780 0.062500 F F F O
0.875000 0.345780 0.062500 F F F O
0.500007 0.248489 0.389557 T T T O
0.749958 0.248822 0.389589 T T T O
0.499977 0.999908 0.264973 T T T O
0.749928 0.999692 0.264850 T T T O
0.624738 0.403021 0.436370 T T T O
0.874964 0.403144 0.437156 T T T O
0.624903 0.153314 0.312531 T T T O
0.875029 0.153365 0.312531 T T T O
0.499990 0.248276 0.483552 T T T O
0.749967 0.248539 0.483720 T T T O
0.499947 0.999202 0.361046 T T T O
0.750008 0.998791 0.360831 T T T O
0.624968 0.094109 0.436648 T T T O
0.875072 0.094237 0.435902 T T T O
0.624853 0.345361 0.312797 T T T O
0.875176 0.345383 0.312912 T T T O
0.751657 0.998710 0.510677 T T T O
0.000000 0.750000 0.139610 F F F O
0.250000 0.750000 0.139610 F F F O
0.000000 0.500000 0.014610 F F F O
0.250000 0.500000 0.014610 F F F O
0.125000 0.904220 0.187500 F F F O
0.375000 0.904220 0.187500 F F F O
0.125000 0.654220 0.062500 F F F O
0.375000 0.654220 0.062500 F F F O
0.000000 0.750000 0.235390 F F F O
0.250000 0.750000 0.235390 F F F O
0.000000 0.500000 0.110390 F F F O
0.250000 0.500000 0.110390 F F F O
0.125000 0.595780 0.187500 F F F O
0.375000 0.595780 0.187500 F F F O
0.125000 0.845780 0.062500 F F F O
0.375000 0.845780 0.062500 F F F O
0.999976 0.748466 0.389530 T T T O
0.250030 0.748702 0.389559 T T T O
0.999978 0.499890 0.265015 T T T O
0.249904 0.499595 0.264984 T T T O
0.124707 0.902996 0.435699 T T T O
0.374972 0.903210 0.436492 T T T O
0.124914 0.653215 0.312718 T T T O
0.374983 0.653278 0.312583 T T T O
0.999991 0.748815 0.483467 T T T O
0.249830 0.748663 0.483637 T T T O
0.999987 0.498856 0.361415 T T T O
0.249866 0.498710 0.361242 T T T O
0.125007 0.594085 0.436907 T T T O
0.375227 0.594209 0.436231 T T T O
0.124819 0.845289 0.312666 T T T O
0.375184 0.845335 0.312769 T T T O
0.500000 0.750000 0.139610 F F F O
0.750000 0.750000 0.139610 F F F O
0.500000 0.500000 0.014610 F F F O
0.750000 0.500000 0.014610 F F F O
0.625000 0.904220 0.187500 F F F O
0.875000 0.904220 0.187500 F F F O
0.625000 0.654220 0.062500 F F F O
0.875000 0.654220 0.062500 F F F O
0.500000 0.750000 0.235390 F F F O
0.750000 0.750000 0.235390 F F F O
0.500000 0.500000 0.110390 F F F O
0.750000 0.500000 0.110390 F F F O
0.625000 0.595780 0.187500 F F F O
0.875000 0.595780 0.187500 F F F O
0.625000 0.845780 0.062500 F F F O
0.875000 0.845780 0.062500 F F F O
0.499929 0.748639 0.389560 T T T O
0.749953 0.748740 0.389560 T T T O
0.499990 0.499872 0.264964 T T T O
0.750102 0.499608 0.264987 T T T O
0.624889 0.903160 0.436472 T T T O
0.875087 0.903041 0.435589 T T T O
0.624969 0.653280 0.312571 T T T O
0.875081 0.653222 0.312718 T T T O
0.499978 0.748356 0.483528 T T T O
0.750053 0.748781 0.483627 T T T O
0.500001 0.499101 0.360980 T T T O
0.750121 0.498703 0.361259 T T T O
0.624755 0.594242 0.436229 T T T O
0.875051 0.594063 0.436927 T T T O
0.624837 0.845335 0.312764 T T T O
0.875152 0.845305 0.312677 T T T O
0.248345 0.998763 0.510692 T T T O
0.252014 0.499397 0.511127 T T T O
0.747907 0.499323 0.511134 T T T O
0.999810 0.998155 0.510483 T T T O
0.499971 0.498599 0.510861 T T T O
0.499963 0.998394 0.511063 T T T O
0.000065 0.499471 0.511495 T T T O
0.751657 0.998710 0.541588 T T T O
