Ir  O Ir  O 
 1.0000000000000000
    12.8085319999999996    0.0000000000000000    0.0000000000000000
     0.0000000000000000    6.4702430000000000    0.0000000000000000
     0.0000000000000000    0.0000000000000000   25.8809719999999999
  16  32  16  34
Selective dynamics
Cartesian
  1.6010664999999999  3.2351215000000000  4.8526822500000000   F   F   F
  4.8031994999999998  3.2351215000000000  4.8526822500000000   F   F   F
  1.6010664999999999  0.0000000000000000  1.6175607500000000   F   F   F
  4.8031994999999998  0.0000000000000000  1.6175607500000000   F   F   F
  0.0000000000000000  3.2351215000000000  1.6175607500000000   F   F   F
  3.2021329999999999  3.2351215000000000  1.6175607500000000   F   F   F
  0.0000000000000000  0.0000000000000000  4.8526822500000000   F   F   F
  3.2021329999999999  0.0000000000000000  4.8526822500000000   F   F   F
  1.6007160192739973  3.2348230605960953 11.3718926638264293   T   T   T
  4.8053139916583856  3.2340514352665775 11.3641108464907550   T   T   T
  1.5984150629717639  0.0013352088811145  8.0726384439737195   T   T   T
  4.8110812076572707  0.0016137562989841  8.0845047640360939   T   T   T
 -0.0023124880051105  3.2364417397707754  8.1072508690449574   T   T   T
  3.1995456662809767  3.2362846944649561  8.1067388698026210   T   T   T
 -0.0129225684747266 -0.0011627915353509 11.2573898983690306   T   T   T
  3.2174656789662617 -0.0004745830246370 11.2632141604852904   T   T   T
  0.0000000000000000  3.2351215000000000  3.6132425009199376   F   F   F
  3.2021329999999999  3.2351215000000000  3.6132425009199376   F   F   F
  0.0000000000000000  0.0000000000000000  0.3781210009199379   F   F   F
  3.2021329999999999  0.0000000000000000  0.3781210009199379   F   F   F
  1.6010664999999999  5.2308032509199833  4.8526822500000000   F   F   F
  4.8031994999999998  5.2308032509199833  4.8526822500000000   F   F   F
  1.6010664999999999  1.9956817509199831  1.6175607500000000   F   F   F
  4.8031994999999998  1.9956817509199831  1.6175607500000000   F   F   F
  0.0000000000000000  3.2351215000000000  6.0921219990800619   F   F   F
  3.2021329999999999  3.2351215000000000  6.0921219990800619   F   F   F
  0.0000000000000000  0.0000000000000000  2.8570004990800624   F   F   F
  3.2021329999999999  0.0000000000000000  2.8570004990800624   F   F   F
  1.6010664999999999  1.2394397490800166  4.8526822500000000   F   F   F
  4.8031994999999998  1.2394397490800166  4.8526822500000000   F   F   F
  1.6010664999999999  4.4745612490800166  1.6175607500000000   F   F   F
  4.8031994999999998  4.4745612490800166  1.6175607500000000   F   F   F
 -0.0018300760091306  3.2342162435741453 10.1034732404497216   T   T   T
  3.2012079463985614  3.2345770543782262 10.1024261715533150   T   T   T
 -0.0010625508216139  0.0023042384975278  6.8367756755983287   T   T   T
  3.2002238732945081  0.0019841139045683  6.8393527525497699   T   T   T
  1.6023469929811260  5.2431984964972695 11.3964589836498167   T   T   T
  4.8115253351026723  5.2365531353243657 11.4103308721825343   T   T   T
  1.5962845259114000  1.9960396199696480  8.0999085099895680   T   T   T
  4.8018878161140890  1.9954360908273125  8.0918952177049484   T   T   T
 -0.0059822327582131  3.2360057565713989 12.5559355774389161   T   T   T
  3.2077171298691409  3.2330875300874675 12.5566812510944388   T   T   T
 -0.0025400049185754  0.0011050145594545  9.2998684062969623   T   T   T
  3.1986121199753947  0.0000304160255732  9.3061347933488996   T   T   T
  1.6020884917321414  1.2256682182954610 11.3982850839699577   T   T   T
  4.8110883229292929  1.2312948820867051 11.4131317822465341   T   T   T
  1.5965086181513661  4.4765758668769333  8.1001512475033408   T   T   T
  4.8017718843342720  4.4780804625095421  8.0928221032233623   T   T   T
  8.0053324999999997  3.2351215000000000  4.8526822500000000   F   F   F
 11.2074654999999996  3.2351215000000000  4.8526822500000000   F   F   F
  8.0053324999999997  0.0000000000000000  1.6175607500000000   F   F   F
 11.2074654999999996  0.0000000000000000  1.6175607500000000   F   F   F
  6.4042659999999998  3.2351215000000000  1.6175607500000000   F   F   F
  9.6063989999999997  3.2351215000000000  1.6175607500000000   F   F   F
  6.4042659999999998  0.0000000000000000  4.8526822500000000   F   F   F
  9.6063989999999997  0.0000000000000000  4.8526822500000000   F   F   F
  8.0031761719735712  3.2327093534027735 11.3063772365183119   T   T   T
 11.2028955647547974  3.2330641343150530 11.3629625736598001   T   T   T
  8.0015378112009330  0.0013902440776261  8.1029778302176041   T   T   T
 11.1939884563886523  0.0015953091261492  8.0808837268496099   T   T   T
  6.4004573917890966  3.2364224552246599  8.0938745362820246   T   T   T
  9.6059009889904630  3.2362823045829385  8.0947469330212662   T   T   T
  6.4409420905944481 -0.0022403937495303 11.3982025905945488   T   T   T
  9.5684562620129512 -0.0023599484288263 11.3947913210374701   T   T   T
  6.4042659999999998  3.2351215000000000  3.6132425009199376   F   F   F
  9.6063989999999997  3.2351215000000000  3.6132425009199376   F   F   F
  6.4042659999999998  0.0000000000000000  0.3781210009199379   F   F   F
  9.6063989999999997  0.0000000000000000  0.3781210009199379   F   F   F
  8.0053324999999997  5.2308032509199833  4.8526822500000000   F   F   F
 11.2074654999999996  5.2308032509199833  4.8526822500000000   F   F   F
  8.0053324999999997  1.9956817509199831  1.6175607500000000   F   F   F
 11.2074654999999996  1.9956817509199831  1.6175607500000000   F   F   F
  6.4042659999999998  3.2351215000000000  6.0921219990800619   F   F   F
  9.6063989999999997  3.2351215000000000  6.0921219990800619   F   F   F
  6.4042659999999998  0.0000000000000000  2.8570004990800624   F   F   F
  9.6063989999999997  0.0000000000000000  2.8570004990800624   F   F   F
  8.0053324999999997  1.2394397490800166  4.8526822500000000   F   F   F
 11.2074654999999996  1.2394397490800166  4.8526822500000000   F   F   F
  8.0053324999999997  4.4745612490800166  1.6175607500000000   F   F   F
 11.2074654999999996  4.4745612490800166  1.6175607500000000   F   F   F
  6.3869508231954937  3.2336615651168730 10.0758574945876092   T   T   T
  9.6175422588301451  3.2312930952448218 10.0765283358811910   T   T   T
  6.4064203244572244 -0.0000509736353169  6.8519729414364736   T   T   T
  9.5988518829057909 -0.0004358423877981  6.8490104069290023   T   T   T
  8.0031586268181663  5.2174496203704965 11.1802189566771961   T   T   T
 11.2004051030914198  5.2358337384971723 11.4011274712870545   T   T   T
  8.0012637850235606  1.9931492807512570  8.0867762796203344   T   T   T
 11.2067843377214800  1.9952488595517499  8.0902386267375963   T   T   T
  6.4299934241703607  3.2336625679203794 12.5132127799877448   T   T   T
  9.5777809869736821  3.2344513430310804 12.5114456893357353   T   T   T
  6.3718468476453047  0.0052564150358655  9.3380467712971758   T   T   T
  9.6312204820883220  0.0034249733241217  9.3358839888562031   T   T   T
  8.0027446926506656  1.2483234994659571 11.1887142389047476   T   T   T
 11.2010265957874857  1.2311401886631845 11.4058037594072594   T   T   T
  8.0005782793519984  4.4793519105338113  8.0892256198980039   T   T   T
 11.2067019632383733  4.4783672374073138  8.0922638231633321   T   T   T
  9.1470481478924253 -0.0089633342151637 13.2203195106261973   T   T   T
  6.8640591226391443 -0.0114232341320924 13.2210406684040596   T   T   T
