Ir  O Ir  O 
 1.0000000000000000
    12.8085319999999996    0.0000000000000000    0.0000000000000000
     0.0000000000000000    6.4702430000000000    0.0000000000000000
     0.0000000000000000    0.0000000000000000   25.8809719999999999
Ir  O Ir  O
  16  34  15  33
Selective dynamics
Cartesian
  1.6010664999999999  3.2351215000000000  4.8526822500000000   F   F   F
  4.8031994999999998  3.2351215000000000  4.8526822500000000   F   F   F
  1.6010664999999999  0.0000000000000000  1.6175607500000000   F   F   F
  4.8031994999999998  0.0000000000000000  1.6175607500000000   F   F   F
  0.0000000000000000  3.2351215000000000  1.6175607500000000   F   F   F
  3.2021329999999999  3.2351215000000000  1.6175607500000000   F   F   F
  0.0000000000000000  0.0000000000000000  4.8526822500000000   F   F   F
  3.2021329999999999  0.0000000000000000  4.8526822500000000   F   F   F
  1.6013939221695004  3.2351215000000000 11.3324935413670573   T   T   T
  4.8031711286466443  3.2351215000000000 11.3321064972064871   T   T   T
  1.6026740299519042  0.0000000000000000  8.0941725939875298   T   T   T
  4.8019742818042150  0.0000000000000000  8.0941900220797383   T   T   T
  0.0025119894121285  3.2351215000000000  8.0952143656116338   T   T   T
  3.2023235091496582  3.2351215000000000  8.0953623360747109   T   T   T
 -0.0014452518766809  0.0000000000000000 11.4378184720371472   T   T   T
  3.2024339717105041  0.0000000000000000 11.4195693744137010   T   T   T
  0.0000000000000000  3.2351215000000000  3.6132425009199376   F   F   F
  3.2021329999999999  3.2351215000000000  3.6132425009199376   F   F   F
  0.0000000000000000  0.0000000000000000  0.3781210009199379   F   F   F
  3.2021329999999999  0.0000000000000000  0.3781210009199379   F   F   F
  1.6010664999999999  5.2308032509199833  4.8526822500000000   F   F   F
  4.8031994999999998  5.2308032509199833  4.8526822500000000   F   F   F
  1.6010664999999999  1.9956817509199831  1.6175607500000000   F   F   F
  4.8031994999999998  1.9956817509199831  1.6175607500000000   F   F   F
  0.0000000000000000  3.2351215000000000  6.0921219990800619   F   F   F
  3.2021329999999999  3.2351215000000000  6.0921219990800619   F   F   F
  0.0000000000000000  0.0000000000000000  2.8570004990800624   F   F   F
  3.2021329999999999  0.0000000000000000  2.8570004990800624   F   F   F
  1.6010664999999999  1.2394397490800166  4.8526822500000000   F   F   F
  4.8031994999999998  1.2394397490800166  4.8526822500000000   F   F   F
  1.6010664999999999  4.4745612490800166  1.6175607500000000   F   F   F
  4.8031994999999998  4.4745612490800166  1.6175607500000000   F   F   F
  0.0014748399891593  3.2351215000000000 10.0775119897342673   T   T   T
  3.2023296761280808  3.2351215000000000 10.0771630497347289   T   T   T
  0.0023628968405865  0.0000000000000000  6.8457729553997959   T   T   T
  3.2023248034831280  0.0000000000000000  6.8525563938659699   T   T   T
  1.5984862584233293  5.2335185638465243 11.2867892360697066   T   T   T
  4.8061785438711002  5.2336570585453117 11.2863307987819219   T   T   T
  1.6000207688057806  1.9902851883262018  8.0852588663742253   T   T   T
  4.8046659195779222  1.9903735940158560  8.0851751485598751   T   T   T
  0.0055813956697557  3.2351215000000000 12.5141730179161481   T   T   T
  3.2024783984158307  3.2351215000000000 12.5088831473561317   T   T   T
 -0.0012537986963188  0.0000000000000000  9.3399661251913546   T   T   T
  3.2023594942565587  0.0000000000000000  9.3323775222317842   T   T   T
  1.5984862584233293  1.2367244361534746 11.2867892360697066   T   T   T
  4.8061785438711002  1.2365859414546880 11.2863307987819219   T   T   T
  1.6000207688057806  4.4799578116737973  8.0852588663742253   T   T   T
  4.8046659195779222  4.4798694059841413  8.0851751485598751   T   T   T
  3.2020659508436617  0.0000000000000000 13.2151021727861373   T   T   T
  0.0265748204235818  0.0000000000000000 13.2324853731065559   T   T   T
  8.0053324999999997  3.2351215000000000  4.8526822500000000   F   F   F
 11.2074654999999996  3.2351215000000000  4.8526822500000000   F   F   F
  8.0053324999999997  0.0000000000000000  1.6175607500000000   F   F   F
 11.2074654999999996  0.0000000000000000  1.6175607500000000   F   F   F
  6.4042659999999998  3.2351215000000000  1.6175607500000000   F   F   F
  9.6063989999999997  3.2351215000000000  1.6175607500000000   F   F   F
  6.4042659999999998  0.0000000000000000  4.8526822500000000   F   F   F
  9.6063989999999997  0.0000000000000000  4.8526822500000000   F   F   F
  8.0033918185246691  3.2351215000000000 11.3418011572426849   T   T   T
  7.9869555435897945  0.0000000000000000  8.0837257844560284   T   T   T
 11.2262623889689923  0.0000000000000000  8.0836117981715265   T   T   T
  6.4023076952012898  3.2351215000000000  8.0952700265797244   T   T   T
  9.6066440962542234  3.2351215000000000  8.1005371251372260   T   T   T
  6.4059947747478381  0.0000000000000000 11.4385562071965623   T   T   T
  9.6063576322750084  0.0000000000000000 11.2309701070086501   T   T   T
  6.4042659999999998  3.2351215000000000  3.6132425009199376   F   F   F
  9.6063989999999997  3.2351215000000000  3.6132425009199376   F   F   F
  6.4042659999999998  0.0000000000000000  0.3781210009199379   F   F   F
  9.6063989999999997  0.0000000000000000  0.3781210009199379   F   F   F
  8.0053324999999997  5.2308032509199833  4.8526822500000000   F   F   F
 11.2074654999999996  5.2308032509199833  4.8526822500000000   F   F   F
  8.0053324999999997  1.9956817509199831  1.6175607500000000   F   F   F
 11.2074654999999996  1.9956817509199831  1.6175607500000000   F   F   F
  6.4042659999999998  3.2351215000000000  6.0921219990800619   F   F   F
  9.6063989999999997  3.2351215000000000  6.0921219990800619   F   F   F
  6.4042659999999998  0.0000000000000000  2.8570004990800624   F   F   F
  9.6063989999999997  0.0000000000000000  2.8570004990800624   F   F   F
  8.0053324999999997  1.2394397490800166  4.8526822500000000   F   F   F
 11.2074654999999996  1.2394397490800166  4.8526822500000000   F   F   F
  8.0053324999999997  4.4745612490800166  1.6175607500000000   F   F   F
 11.2074654999999996  4.4745612490800166  1.6175607500000000   F   F   F
  6.4031382670191768  3.2351215000000000 10.0776773493074483   T   T   T
  9.6066098076193089  3.2351215000000000 10.0849990189780527   T   T   T
  6.4020620151244829  0.0000000000000000  6.8459802910510348   T   T   T
  9.6064589032814727  0.0000000000000000  6.8466602329603203   T   T   T
  8.0090930582613229  5.2339147560286650 11.3384282748173266   T   T   T
 11.2039331453166771  5.2342538224704134 11.3385366383971551   T   T   T
  7.9999374793136040  1.9936318831261002  8.0920805456434692   T   T   T
 11.2133478425445734  1.9939483779966158  8.0920304854849032   T   T   T
  6.3977720113239425  3.2351215000000000 12.5139985933126869   T   T   T
  9.6075484328920044  3.2351215000000000 12.5277735000252761   T   T   T
  6.4059608249880151  0.0000000000000000  9.3403420129633457   T   T   T
  9.6066675394777086  0.0000000000000000  9.2940605749012342   T   T   T
  8.0090930582613229  1.2363282439713337 11.3384282748173266   T   T   T
 11.2039331453166771  1.2359891775295859 11.3385366383971551   T   T   T
  7.9999374793136040  4.4766111168738991  8.0920805456434692   T   T   T
 11.2133478425445734  4.4762946220033824  8.0920304854849032   T   T   T
  6.3764589187408456  0.0000000000000000 13.2330796064644929   T   T   T
