Ir  O Ir  O 
 1.0000000000000000
    12.8085319999999996    0.0000000000000000    0.0000000000000000
     0.0000000000000000    6.4702430000000000    0.0000000000000000
     0.0000000000000000    0.0000000000000000   25.8809719999999999
Ir  O Ir  O
  16  34  16  34
Selective dynamics
Cartesian
  1.6010664999999999  3.2351215000000000  4.8526822500000000   F   F   F
  4.8031994999999998  3.2351215000000000  4.8526822500000000   F   F   F
  1.6010664999999999  0.0000000000000000  1.6175607500000000   F   F   F
  4.8031994999999998  0.0000000000000000  1.6175607500000000   F   F   F
  0.0000000000000000  3.2351215000000000  1.6175607500000000   F   F   F
  3.2021329999999999  3.2351215000000000  1.6175607500000000   F   F   F
  0.0000000000000000  0.0000000000000000  4.8526822500000000   F   F   F
  3.2021329999999999  0.0000000000000000  4.8526822500000000   F   F   F
  1.5991938209031480  3.2351215000000000 11.3360635286018141   F   F   F
  4.7970834697716711  3.2351215000000000 11.3532947007885827   F   F   F
  1.5979567030684136  0.0000000000000000  8.1159001389684029   F   F   F
  4.7864940555488804  0.0000000000000000  8.1042664305744960   F   F   F
 12.8077483581619749  3.2351215000000000  8.1016959516709939   F   F   F
  3.1997595017544906  3.2351215000000000  8.1004544474234041   F   F   F
 12.7928159771287486  0.0000000000000000 11.4475480902356477   F   F   F
  3.2146009332510581  0.0000000000000000 11.4410348089743934   F   F   F
  0.0000000000000000  3.2351215000000000  3.6132425009199376   F   F   F
  3.2021329999999999  3.2351215000000000  3.6132425009199376   F   F   F
  0.0000000000000000  0.0000000000000000  0.3781210009199379   F   F   F
  3.2021329999999999  0.0000000000000000  0.3781210009199379   F   F   F
  1.6010664999999999  5.2308032509199833  4.8526822500000000   F   F   F
  4.8031994999999998  5.2308032509199833  4.8526822500000000   F   F   F
  1.6010664999999999  1.9956817509199831  1.6175607500000000   F   F   F
  4.8031994999999998  1.9956817509199831  1.6175607500000000   F   F   F
  0.0000000000000000  3.2351215000000000  6.0921219990800619   F   F   F
  3.2021329999999999  3.2351215000000000  6.0921219990800619   F   F   F
  0.0000000000000000  0.0000000000000000  2.8570004990800624   F   F   F
  3.2021329999999999  0.0000000000000000  2.8570004990800624   F   F   F
  1.6010664999999999  1.2394397490800166  4.8526822500000000   F   F   F
  4.8031994999999998  1.2394397490800166  4.8526822500000000   F   F   F
  1.6010664999999999  4.4745612490800166  1.6175607500000000   F   F   F
  4.8031994999999998  4.4745612490800166  1.6175607500000000   F   F   F
 12.8068529533513171  3.2351215000000000 10.0869603171666000   F   F   F
  3.1997062892459271  3.2351215000000000 10.0836831293947089   F   F   F
  0.0030201274341474  0.0000000000000000  6.8597208980618083   F   F   F
  3.1930838646633206  0.0000000000000000  6.8577362984510710   F   F   F
  1.5975312105605282  5.2361748712836622 11.2759165643695951   F   F   F
  4.8101846278173861  5.2437921222816470 11.3675678220169889   F   F   F
  1.5967917425940099  1.9943020370173217  8.0965340724005834   F   F   F
  4.8001957467274918  1.9941422866729874  8.1000008410921449   F   F   F
  0.0115180603796112  3.2351215000000000 12.5220340278720954   F   F   F
  3.1877440464698035  3.2351215000000000 12.5213059377001894   F   F   F
 12.8084594757941801  0.0000000000000000  9.3741553458641427   F   F   F
  3.1985267933525154  0.0000000000000000  9.3687274731401811   F   F   F
  1.5975312105605282  1.2340681287163378 11.2759165643695951   F   F   F
  4.8101846278173861  1.2264508777183067 11.3675678220169889   F   F   F
  1.5967917425940099  4.4759409629826790  8.0965340724005834   F   F   F
  4.8001957467274918  4.4761007133269208  8.1000008410921449   F   F   F
  3.1381028763722565  0.0000000000000000 13.2225884024338480   F   F   F
  0.0569075172922231  0.0000000000000000 13.2295650367139661   F   F   F
  8.0053324999999997  3.2351215000000000  4.8526822500000000   F   F   F
 11.2074654999999996  3.2351215000000000  4.8526822500000000   F   F   F
  8.0053324999999997  0.0000000000000000  1.6175607500000000   F   F   F
 11.2074654999999996  0.0000000000000000  1.6175607500000000   F   F   F
  6.4042659999999998  3.2351215000000000  1.6175607500000000   F   F   F
  9.6063989999999997  3.2351215000000000  1.6175607500000000   F   F   F
  6.4042659999999998  0.0000000000000000  4.8526822500000000   F   F   F
  9.6063989999999997  0.0000000000000000  4.8526822500000000   F   F   F
  8.0045941887004197  3.2351215000000000 11.3745938432490536   F   F   F
 11.2112008703852588  3.2351215000000000 11.3568238585827714   F   F   F
  8.0058514082682795  0.0000000000000000  8.1055743103818028   F   F   F
 11.2222950235578018  0.0000000000000000  8.1078033147928235   F   F   F
  6.4027396858713965  3.2351215000000000  8.1086025998317002   F   F   F
  9.6067262072947468  3.2351215000000000  8.1092055489898982   F   F   F
  6.4236182177197474  0.0000000000000000 11.3439855136675867   F   F   F
  9.5862765203726941  0.0000000000000000 11.3555018652873390   F   F   F
  6.4042659999999998  3.2351215000000000  3.6132425009199376   F   F   F
  9.6063989999999997  3.2351215000000000  3.6132425009199376   F   F   F
  6.4042659999999998  0.0000000000000000  0.3781210009199379   F   F   F
  9.6063989999999997  0.0000000000000000  0.3781210009199379   F   F   F
  8.0053324999999997  5.2308032509199833  4.8526822500000000   F   F   F
 11.2074654999999996  5.2308032509199833  4.8526822500000000   F   F   F
  8.0053324999999997  1.9956817509199831  1.6175607500000000   F   F   F
 11.2074654999999996  1.9956817509199831  1.6175607500000000   F   F   F
  6.4042659999999998  3.2351215000000000  6.0921219990800619   F   F   F
  9.6063989999999997  3.2351215000000000  6.0921219990800619   F   F   F
  6.4042659999999998  0.0000000000000000  2.8570004990800624   F   F   F
  9.6063989999999997  0.0000000000000000  2.8570004990800624   F   F   F
  8.0053324999999997  1.2394397490800166  4.8526822500000000   F   F   F
 11.2074654999999996  1.2394397490800166  4.8526822500000000   F   F   F
  8.0053324999999997  4.4745612490800166  1.6175607500000000   F   F   F
 11.2074654999999996  4.4745612490800166  1.6175607500000000   F   F   F
  6.4033277090909131  3.2351215000000000 10.1029652181249858   F   F   F
  9.6066070311309737  3.2351215000000000 10.1036694334200163   F   F   F
  6.4036724211721543  0.0000000000000000  6.8584154692369532   F   F   F
  9.6085208796369876  0.0000000000000000  6.8583811221337223   F   F   F
  8.0050270955464455  5.2326654984429686 11.4199891659005655   F   F   F
 11.1988908383212706  5.2430367585456406 11.3791569407257924   F   F   F
  8.0036422999649535  1.9942359772325682  8.1085743674355033   F   F   F
 11.2114720765367135  1.9934680362086326  8.1030716778473195   F   F   F
  6.3980341096276465  3.2351215000000000 12.5490622477148293   F   F   F
  9.6115791921021518  3.2351215000000000 12.5522451186401174   F   F   F
  6.3989837067006494  0.0000000000000000  9.3403905980995532   F   F   F
  9.6118733447494780  0.0000000000000000  9.3456147274188233   F   F   F
  8.0050270955464455  1.2375775015570312 11.4199891659005655   F   F   F
 11.1988908383212706  1.2272062414543590 11.3791569407257924   F   F   F
  8.0036422999649535  4.4760070227673401  8.1085743674355033   F   F   F
 11.2114720765367135  4.4767749637913674  8.1030716778473195   F   F   F
  8.6554913398132829  0.0000000000000000 14.1434990915249124   T   T   T
  7.3977535682785245  0.0000000000000000 14.1482728058427387   T   T   T
