Ir64 O139
1.0
12.808532 0.000000 0.000000
0.000000 12.940486 0.000000
0.000000 0.000000 25.880972
Ir O
64 139
Selective dynamics
direct
0.125000 0.250000 0.187500 F F F Ir
0.375000 0.250000 0.187500 F F F Ir
0.125000 0.000000 0.062500 F F F Ir
0.375000 0.000000 0.062500 F F F Ir
0.000000 0.250000 0.062500 F F F Ir
0.250000 0.250000 0.062500 F F F Ir
0.000000 0.000000 0.187500 F F F Ir
0.250000 0.000000 0.187500 F F F Ir
0.124986 0.248383 0.437895 T T T Ir
0.375066 0.248432 0.437862 T T T Ir
0.124976 0.999281 0.312691 T T T Ir
0.375013 0.999196 0.312710 T T T Ir
0.999980 0.249182 0.312835 T T T Ir
0.249984 0.249252 0.312830 T T T Ir
0.000083 0.998401 0.441184 T T T Ir
0.250047 0.998448 0.441004 T T T Ir
0.625000 0.250000 0.187500 F F F Ir
0.875000 0.250000 0.187500 F F F Ir
0.625000 0.000000 0.062500 F F F Ir
0.875000 0.000000 0.062500 F F F Ir
0.500000 0.250000 0.062500 F F F Ir
0.750000 0.250000 0.062500 F F F Ir
0.500000 0.000000 0.187500 F F F Ir
0.750000 0.000000 0.187500 F F F Ir
0.624991 0.248348 0.437889 T T T Ir
0.875035 0.248363 0.437877 T T T Ir
0.625010 0.999209 0.312724 T T T Ir
0.875073 0.999233 0.312742 T T T Ir
0.500000 0.249117 0.312811 T T T Ir
0.749994 0.249238 0.312870 T T T Ir
0.499986 0.998366 0.441018 T T T Ir
0.750205 0.998318 0.441057 T T T Ir
0.125000 0.750000 0.187500 F F F Ir
0.375000 0.750000 0.187500 F F F Ir
0.125000 0.500000 0.062500 F F F Ir
0.375000 0.500000 0.062500 F F F Ir
0.000000 0.750000 0.062500 F F F Ir
0.250000 0.750000 0.062500 F F F Ir
0.000000 0.500000 0.187500 F F F Ir
0.250000 0.500000 0.187500 F F F Ir
0.125013 0.748414 0.437883 T T T Ir
0.375038 0.748348 0.437860 T T T Ir
0.124925 0.499229 0.312756 T T T Ir
0.375023 0.499231 0.312751 T T T Ir
0.000005 0.749170 0.312805 T T T Ir
0.250001 0.749256 0.312824 T T T Ir
0.000051 0.498405 0.441227 T T T Ir
0.250075 0.498445 0.441083 T T T Ir
0.625000 0.750000 0.187500 F F F Ir
0.875000 0.750000 0.187500 F F F Ir
0.625000 0.500000 0.062500 F F F Ir
0.875000 0.500000 0.062500 F F F Ir
0.500000 0.750000 0.062500 F F F Ir
0.750000 0.750000 0.062500 F F F Ir
0.500000 0.500000 0.187500 F F F Ir
0.750000 0.500000 0.187500 F F F Ir
0.625003 0.748335 0.437866 T T T Ir
0.875093 0.748350 0.437868 T T T Ir
0.625011 0.499187 0.312738 T T T Ir
0.875072 0.499228 0.312743 T T T Ir
0.500040 0.749149 0.312822 T T T Ir
0.750028 0.749193 0.312852 T T T Ir
0.500036 0.498318 0.441167 T T T Ir
0.749996 0.498429 0.441091 T T T Ir
0.000000 0.250000 0.139610 F F F O
0.250000 0.250000 0.139610 F F F O
0.000000 0.000000 0.014610 F F F O
0.250000 0.000000 0.014610 F F F O
0.125000 0.404220 0.187500 F F F O
0.375000 0.404220 0.187500 F F F O
0.125000 0.154220 0.062500 F F F O
0.375000 0.154220 0.062500 F F F O
0.000000 0.250000 0.235390 F F F O
0.250000 0.250000 0.235390 F F F O
0.000000 0.000000 0.110390 F F F O
0.250000 0.000000 0.110390 F F F O
0.125000 0.095780 0.187500 F F F O
0.375000 0.095780 0.187500 F F F O
0.125000 0.345780 0.062500 F F F O
0.375000 0.345780 0.062500 F F F O
0.000060 0.248303 0.389388 T T T O
0.249945 0.248649 0.389409 T T T O
0.999987 0.999791 0.264925 T T T O
0.249937 0.999683 0.264758 T T T O
0.124842 0.402844 0.435858 T T T O
0.375256 0.402799 0.435857 T T T O
0.124983 0.153262 0.312444 T T T O
0.375098 0.153153 0.312454 T T T O
0.000038 0.248285 0.483368 T T T O
0.250003 0.248634 0.483368 T T T O
0.000003 0.999155 0.360750 T T T O
0.250006 0.998776 0.360689 T T T O
0.124945 0.093989 0.436123 T T T O
0.375080 0.093937 0.435935 T T T O
0.124734 0.345193 0.312563 T T T O
0.375234 0.345135 0.312615 T T T O
0.500000 0.250000 0.139610 F F F O
0.750000 0.250000 0.139610 F F F O
0.500000 0.000000 0.014610 F F F O
0.750000 0.000000 0.014610 F F F O
0.625000 0.404220 0.187500 F F F O
0.875000 0.404220 0.187500 F F F O
0.625000 0.154220 0.062500 F F F O
0.875000 0.154220 0.062500 F F F O
0.500000 0.250000 0.235390 F F F O
0.750000 0.250000 0.235390 F F F O
0.500000 0.000000 0.110390 F F F O
0.750000 0.000000 0.110390 F F F O
0.625000 0.095780 0.187500 F F F O
0.875000 0.095780 0.187500 F F F O
0.625000 0.345780 0.062500 F F F O
0.875000 0.345780 0.062500 F F F O
0.500030 0.248243 0.389384 T T T O
0.749996 0.248662 0.389437 T T T O
0.499999 0.999813 0.264890 T T T O
0.749977 0.999665 0.264801 T T T O
0.624877 0.402842 0.435738 T T T O
0.875255 0.402827 0.435840 T T T O
0.624964 0.153236 0.312434 T T T O
0.875073 0.153220 0.312429 T T T O
0.499967 0.248303 0.483376 T T T O
0.750067 0.248625 0.483414 T T T O
0.500090 0.999020 0.360753 T T T O
0.750010 0.998764 0.360734 T T T O
0.625025 0.093834 0.436274 T T T O
0.875206 0.094023 0.435967 T T T O
0.624765 0.345187 0.312606 T T T O
0.875219 0.345200 0.312611 T T T O
0.751769 0.998301 0.510429 T T T O
0.000000 0.750000 0.139610 F F F O
0.250000 0.750000 0.139610 F F F O
0.000000 0.500000 0.014610 F F F O
0.250000 0.500000 0.014610 F F F O
0.125000 0.904220 0.187500 F F F O
0.375000 0.904220 0.187500 F F F O
0.125000 0.654220 0.062500 F F F O
0.375000 0.654220 0.062500 F F F O
0.000000 0.750000 0.235390 F F F O
0.250000 0.750000 0.235390 F F F O
0.000000 0.500000 0.110390 F F F O
0.250000 0.500000 0.110390 F F F O
0.125000 0.595780 0.187500 F F F O
0.375000 0.595780 0.187500 F F F O
0.125000 0.845780 0.062500 F F F O
0.375000 0.845780 0.062500 F F F O
0.000017 0.748209 0.389330 T T T O
0.249968 0.748600 0.389413 T T T O
0.000004 0.499847 0.264909 T T T O
0.249999 0.499701 0.264820 T T T O
0.124789 0.902867 0.435796 T T T O
0.375120 0.902820 0.435472 T T T O
0.124915 0.653213 0.312442 T T T O
0.375050 0.653223 0.312453 T T T O
0.999991 0.748334 0.483354 T T T O
0.250023 0.748603 0.483419 T T T O
0.999993 0.499064 0.360829 T T T O
0.249976 0.498757 0.360783 T T T O
0.124988 0.593977 0.436137 T T T O
0.375221 0.593921 0.436169 T T T O
0.124783 0.845206 0.312550 T T T O
0.375200 0.845201 0.312594 T T T O
0.500000 0.750000 0.139610 F F F O
0.750000 0.750000 0.139610 F F F O
0.500000 0.500000 0.014610 F F F O
0.750000 0.500000 0.014610 F F F O
0.625000 0.904220 0.187500 F F F O
0.875000 0.904220 0.187500 F F F O
0.625000 0.654220 0.062500 F F F O
0.875000 0.654220 0.062500 F F F O
0.500000 0.750000 0.235390 F F F O
0.750000 0.750000 0.235390 F F F O
0.500000 0.500000 0.110390 F F F O
0.750000 0.500000 0.110390 F F F O
0.625000 0.595780 0.187500 F F F O
0.875000 0.595780 0.187500 F F F O
0.625000 0.845780 0.062500 F F F O
0.875000 0.845780 0.062500 F F F O
0.500076 0.748233 0.389354 T T T O
0.750042 0.748708 0.389400 T T T O
0.500020 0.499822 0.264904 T T T O
0.749994 0.499649 0.264791 T T T O
0.624986 0.902749 0.435935 T T T O
0.875415 0.902812 0.435796 T T T O
0.624956 0.653148 0.312468 T T T O
0.875053 0.653157 0.312453 T T T O
0.499941 0.748368 0.483375 T T T O
0.750059 0.748653 0.483375 T T T O
0.500002 0.498984 0.360797 T T T O
0.750037 0.498848 0.360754 T T T O
0.624893 0.593938 0.436050 T T T O
0.875104 0.593895 0.436192 T T T O
0.624776 0.845183 0.312606 T T T O
0.875201 0.845194 0.312581 T T T O
0.250367 0.998562 0.510406 T T T O
0.250401 0.498647 0.510456 T T T O
0.749599 0.498595 0.510484 T T T O
0.999993 0.998484 0.510587 T T T O
0.500320 0.497802 0.510554 T T T O
0.498573 0.997782 0.510411 T T T O
0.000047 0.498152 0.510635 T T T O
0.673021 0.963415 0.621708 T T T O
0.587812 0.007629 0.622268 T T T O
0.282881 0.659557 0.552532 T T T O
