Ir  O Ir  O
 1.0000000000000000
  12.8085319999999996   0.0000000000000000   0.0000000000000000
   0.0000000000000000   6.4702430000000000   0.0000000000000000
   0.0000000000000000   0.0000000000000000  25.8809719999999999
Ir  O Ir  O
16  34  16  34  
Selective dynamics
Direct
  0.1250000000000000  0.5000000000000000  0.1875000000000000 F F F
  0.3750000000000000  0.5000000000000000  0.1875000000000000 F F F
  0.1250000000000000  0.0000000000000000  0.0625000000000000 F F F
  0.3750000000000000  0.0000000000000000  0.0625000000000000 F F F
  0.0000000000000000  0.5000000000000000  0.0625000000000000 F F F
  0.2500000000000000  0.5000000000000000  0.0625000000000000 F F F
  0.0000000000000000  0.0000000000000000  0.1875000000000000 F F F
  0.2500000000000000  0.0000000000000000  0.1875000000000000 F F F
  0.1249946325134490  0.5000000000000000  0.4381957014110040 T T T
  0.3749678648411390  0.5000000000000000  0.4387310751054230 T T T
  0.1248676816218150  0.0000000000000000  0.3133151601486400 T T T
  0.3733850970517950  0.0000000000000000  0.3125819116572900 T T T
  0.0001468519440593  0.5000000000000000  0.3130487435059020 T T T
  0.2497329653750600  0.5000000000000000  0.3130463996646780 T T T
  0.9990927228365860  0.0000000000000000  0.4425381400054530 T T T
  0.2506931609488990  0.0000000000000000  0.4425770798371290 T T T
  0.0000000000000000  0.5000000000000000  0.1396099999999980 F F F
  0.2500000000000000  0.5000000000000000  0.1396099999999980 F F F
  0.0000000000000000  0.0000000000000000  0.0146099999999976 F F F
  0.2500000000000000  0.0000000000000000  0.0146099999999976 F F F
  0.1250000000000000  0.8084399999999970  0.1875000000000000 F F F
  0.3750000000000000  0.8084399999999970  0.1875000000000000 F F F
  0.1250000000000000  0.3084399999999970  0.0625000000000000 F F F
  0.3750000000000000  0.3084399999999970  0.0625000000000000 F F F
  0.0000000000000000  0.5000000000000000  0.2353900000000020 F F F
  0.2500000000000000  0.5000000000000000  0.2353900000000020 F F F
  0.0000000000000000  0.0000000000000000  0.1103900000000020 F F F
  0.2500000000000000  0.0000000000000000  0.1103900000000020 F F F
  0.1250000000000000  0.1915600000000030  0.1875000000000000 F F F
  0.3750000000000000  0.1915600000000030  0.1875000000000000 F F F
  0.1250000000000000  0.6915600000000030  0.0625000000000000 F F F
  0.3750000000000000  0.6915600000000030  0.0625000000000000 F F F
  0.9999166267337570  0.5000000000000000  0.3898955973873020 T T T
  0.2500967994173990  0.5000000000000000  0.3898284471563400 T T T
  0.0005836301999267  0.0000000000000000  0.2647601353449290 T T T
  0.2492430702055230  0.0000000000000000  0.2647564266776290 T T T
  0.1248177885538340  0.8092404320191590  0.4364675646496390 T T T
  0.3769756068000020  0.8086416302617609  0.4397736752208700 T T T
  0.1247671460754990  0.3076051300480960  0.3129814718385400 T T T
  0.3745016987982550  0.3079454770162470  0.3125586815823310 T T T
  0.0004017903816020  0.5000000000000000  0.4839413213669490 T T T
  0.2496650101008200  0.5000000000000000  0.4840437995694420 T T T
  0.9994510617833190  0.0000000000000000  0.3614875555411030 T T T
  0.2502909295937100  0.0000000000000000  0.3615468802876830 T T T
  0.1248177885538340  0.1907595679808410  0.4364675646496390 T T T
  0.3769756068000020  0.1913583697382320  0.4397736752208700 T T T
  0.1247671460754990  0.6923948699519040  0.3129814718385400 T T T
  0.3745016987982550  0.6920545229837320  0.3125586815823310 T T T
  0.2476282553244930  0.0000000000000000  0.5119705111380310 T T T
  0.0033329133965268  0.0000000000000000  0.5119034214151480 T T T
  0.6250000000000000  0.5000000000000000  0.1875000000000000 F F F
  0.8750000000000000  0.5000000000000000  0.1875000000000000 F F F
  0.6250000000000000  0.0000000000000000  0.0625000000000000 F F F
  0.8750000000000000  0.0000000000000000  0.0625000000000000 F F F
  0.5000000000000000  0.5000000000000000  0.0625000000000000 F F F
  0.7500000000000000  0.5000000000000000  0.0625000000000000 F F F
  0.5000000000000000  0.0000000000000000  0.1875000000000000 F F F
  0.7500000000000000  0.0000000000000000  0.1875000000000000 F F F
  0.6249118159302181  0.5000000000000000  0.4374179271778400 T T T
  0.8749310297247920  0.5000000000000000  0.4387737303947430 T T T
  0.6248654866831980  0.0000000000000000  0.3123514423467600 T T T
  0.8764683595879530  0.0000000000000000  0.3125615058067340 T T T
  0.4995678089777020  0.5000000000000000  0.3127975583052560 T T T
  0.7502281032243800  0.5000000000000000  0.3128009190923180 T T T
  0.5028814282493030  0.0000000000000000  0.4364032181214270 T T T
  0.7468857714398920  0.0000000000000000  0.4363884321636250 T T T
  0.5000000000000000  0.5000000000000000  0.1396099999999980 F F F
  0.7500000000000000  0.5000000000000000  0.1396099999999980 F F F
  0.5000000000000000  0.0000000000000000  0.0146099999999976 F F F
  0.7500000000000000  0.0000000000000000  0.0146099999999976 F F F
  0.6250000000000000  0.8084399999999970  0.1875000000000000 F F F
  0.8750000000000000  0.8084399999999970  0.1875000000000000 F F F
  0.6250000000000000  0.3084399999999970  0.0625000000000000 F F F
  0.8750000000000000  0.3084399999999970  0.0625000000000000 F F F
  0.5000000000000000  0.5000000000000000  0.2353900000000020 F F F
  0.7500000000000000  0.5000000000000000  0.2353900000000020 F F F
  0.5000000000000000  0.0000000000000000  0.1103900000000020 F F F
  0.7500000000000000  0.0000000000000000  0.1103900000000020 F F F
  0.6250000000000000  0.1915600000000030  0.1875000000000000 F F F
  0.8750000000000000  0.1915600000000030  0.1875000000000000 F F F
  0.6250000000000000  0.6915600000000030  0.0625000000000000 F F F
  0.8750000000000000  0.6915600000000030  0.0625000000000000 F F F
  0.4990160971284110  0.5000000000000000  0.3894617457125950 T T T
  0.7509034971730910  0.5000000000000000  0.3894739467894650 T T T
  0.4996971157337810  0.0000000000000000  0.2646358622090400 T T T
  0.7501459082001820  0.0000000000000000  0.2645973453044520 T T T
  0.6247798752978970  0.8068312045789060  0.4346637657118390 T T T
  0.8728924187763950  0.8088467378163240  0.4400279703021890 T T T
  0.6247491277931800  0.3083300788347430  0.3124662362206580 T T T
  0.8755514650918600  0.3079208104933640  0.3124872460057660 T T T
  0.5011275859675520  0.5000000000000000  0.4838661868855140 T T T
  0.7485968904143550  0.5000000000000000  0.4838823781502770 T T T
  0.4977666065393930  0.0000000000000000  0.3597212629552400 T T T
  0.7518572828797619  0.0000000000000000  0.3597228042533800 T T T
  0.6247798752978970  0.1931687954210940  0.4346637657118390 T T T
  0.8728924187763950  0.1911532621836760  0.4400279703021890 T T T
  0.6247491277931800  0.6916699211652360  0.3124662362206580 T T T
  0.8755514650918600  0.6920791895066360  0.3124872460057660 T T T
  0.6764836789936840  0.0000000000000000  0.6248187416589990 T T T
  0.5738236760113510  0.0000000000000000  0.6248007189389070 T T T
