Ir64 O135
1.0
12.808532 0.000000 0.000000
0.000000 12.940486 0.000000
0.000000 0.000000 25.880972
Ir O
64 135
Selective dynamics
direct
0.125000 0.250000 0.187500 F F F Ir
0.375000 0.250000 0.187500 F F F Ir
0.125000 0.000000 0.062500 F F F Ir
0.375000 0.000000 0.062500 F F F Ir
0.000000 0.250000 0.062500 F F F Ir
0.250000 0.250000 0.062500 F F F Ir
0.000000 0.000000 0.187500 F F F Ir
0.250000 0.000000 0.187500 F F F Ir
0.125000 0.248983 0.438551 T T T Ir
0.374864 0.248316 0.438465 T T T Ir
0.124850 0.999456 0.312913 T T T Ir
0.373567 0.999591 0.312647 T T T Ir
0.999987 0.249745 0.313133 T T T Ir
0.249930 0.249606 0.313093 T T T Ir
0.999891 0.998626 0.440910 T T T Ir
0.249835 0.998693 0.442094 T T T Ir
0.625000 0.250000 0.187500 F F F Ir
0.875000 0.250000 0.187500 F F F Ir
0.625000 0.000000 0.062500 F F F Ir
0.875000 0.000000 0.062500 F F F Ir
0.500000 0.250000 0.062500 F F F Ir
0.750000 0.250000 0.062500 F F F Ir
0.500000 0.000000 0.187500 F F F Ir
0.750000 0.000000 0.187500 F F F Ir
0.625090 0.248309 0.438462 T T T Ir
0.874940 0.248986 0.438561 T T T Ir
0.626387 0.999605 0.312641 T T T Ir
0.875154 0.999475 0.312919 T T T Ir
0.499986 0.249428 0.313082 T T T Ir
0.750064 0.249610 0.313117 T T T Ir
0.499957 0.998819 0.434795 T T T Ir
0.750058 0.998675 0.442055 T T T Ir
0.125000 0.750000 0.187500 F F F Ir
0.375000 0.750000 0.187500 F F F Ir
0.125000 0.500000 0.062500 F F F Ir
0.375000 0.500000 0.062500 F F F Ir
0.000000 0.750000 0.062500 F F F Ir
0.250000 0.750000 0.062500 F F F Ir
0.000000 0.500000 0.187500 F F F Ir
0.250000 0.500000 0.187500 F F F Ir
0.125008 0.748426 0.438236 T T T Ir
0.374893 0.749206 0.438361 T T T Ir
0.126412 0.499531 0.312810 T T T Ir
0.375177 0.499563 0.313068 T T T Ir
0.999993 0.749209 0.312955 T T T Ir
0.250021 0.749504 0.312979 T T T Ir
0.999964 0.498596 0.435010 T T T Ir
0.250005 0.498847 0.442512 T T T Ir
0.625000 0.750000 0.187500 F F F Ir
0.875000 0.750000 0.187500 F F F Ir
0.625000 0.500000 0.062500 F F F Ir
0.875000 0.500000 0.062500 F F F Ir
0.500000 0.750000 0.062500 F F F Ir
0.750000 0.750000 0.062500 F F F Ir
0.500000 0.500000 0.187500 F F F Ir
0.750000 0.500000 0.187500 F F F Ir
0.625065 0.749208 0.438377 T T T Ir
0.874940 0.748389 0.438212 T T T Ir
0.624809 0.499546 0.313074 T T T Ir
0.873587 0.499539 0.312815 T T T Ir
0.500007 0.749850 0.313103 T T T Ir
0.749985 0.749508 0.312979 T T T Ir
0.499973 0.498797 0.441338 T T T Ir
0.749934 0.498808 0.442573 T T T Ir
0.000000 0.250000 0.139610 F F F O
0.250000 0.250000 0.139610 F F F O
0.000000 0.000000 0.014610 F F F O
0.250000 0.000000 0.014610 F F F O
0.125000 0.404220 0.187500 F F F O
0.375000 0.404220 0.187500 F F F O
0.125000 0.154220 0.062500 F F F O
0.375000 0.154220 0.062500 F F F O
0.000000 0.250000 0.235390 F F F O
0.250000 0.250000 0.235390 F F F O
0.000000 0.000000 0.110390 F F F O
0.250000 0.000000 0.110390 F F F O
0.125000 0.095780 0.187500 F F F O
0.375000 0.095780 0.187500 F F F O
0.125000 0.345780 0.062500 F F F O
0.375000 0.345780 0.062500 F F F O
0.999977 0.250028 0.389967 T T T O
0.249851 0.249003 0.389807 T T T O
0.999983 0.999941 0.264966 T T T O
0.249884 0.999651 0.264669 T T T O
0.124491 0.403313 0.439179 T T T O
0.375091 0.403104 0.436366 T T T O
0.124863 0.153620 0.312665 T T T O
0.374684 0.153697 0.312940 T T T O
0.999949 0.249274 0.484232 T T T O
0.249919 0.247903 0.484111 T T T O
0.000039 0.999314 0.360738 T T T O
0.250037 0.998896 0.361259 T T T O
0.124745 0.094360 0.436034 T T T O
0.375258 0.093967 0.438804 T T T O
0.125083 0.345540 0.313191 T T T O
0.375163 0.345478 0.312815 T T T O
0.500000 0.250000 0.139610 F F F O
0.750000 0.250000 0.139610 F F F O
0.500000 0.000000 0.014610 F F F O
0.750000 0.000000 0.014610 F F F O
0.625000 0.404220 0.187500 F F F O
0.875000 0.404220 0.187500 F F F O
0.625000 0.154220 0.062500 F F F O
0.875000 0.154220 0.062500 F F F O
0.500000 0.250000 0.235390 F F F O
0.750000 0.250000 0.235390 F F F O
0.500000 0.000000 0.110390 F F F O
0.750000 0.000000 0.110390 F F F O
0.625000 0.095780 0.187500 F F F O
0.875000 0.095780 0.187500 F F F O
0.625000 0.345780 0.062500 F F F O
0.875000 0.345780 0.062500 F F F O
0.499985 0.248657 0.389828 T T T O
0.750177 0.249071 0.389825 T T T O
0.499984 0.999971 0.264867 T T T O
0.750085 0.999633 0.264677 T T T O
0.624809 0.403069 0.436439 T T T O
0.875480 0.403312 0.439220 T T T O
0.625269 0.153673 0.312934 T T T O
0.875161 0.153644 0.312655 T T T O
0.500001 0.246457 0.484046 T T T O
0.749967 0.247940 0.484115 T T T O
0.499978 0.999991 0.359634 T T T O
0.749881 0.998945 0.361239 T T T O
0.624672 0.093973 0.438790 T T T O
0.875096 0.094368 0.435841 T T T O
0.624820 0.345463 0.312863 T T T O
0.874895 0.345570 0.313185 T T T O
0.753493 0.998060 0.511374 T T T O
0.000000 0.750000 0.139610 F F F O
0.250000 0.750000 0.139610 F F F O
0.000000 0.500000 0.014610 F F F O
0.250000 0.500000 0.014610 F F F O
0.125000 0.904220 0.187500 F F F O
0.375000 0.904220 0.187500 F F F O
0.125000 0.654220 0.062500 F F F O
0.375000 0.654220 0.062500 F F F O
0.000000 0.750000 0.235390 F F F O
0.250000 0.750000 0.235390 F F F O
0.000000 0.500000 0.110390 F F F O
0.250000 0.500000 0.110390 F F F O
0.125000 0.595780 0.187500 F F F O
0.375000 0.595780 0.187500 F F F O
0.125000 0.845780 0.062500 F F F O
0.375000 0.845780 0.062500 F F F O
0.000001 0.747937 0.389630 T T T O
0.249983 0.748706 0.389618 T T T O
0.999975 0.499829 0.264924 T T T O
0.250154 0.499841 0.264783 T T T O
0.124827 0.902994 0.435537 T T T O
0.375458 0.903504 0.438524 T T T O
0.125328 0.653539 0.312852 T T T O
0.375277 0.653743 0.312700 T T T O
0.999924 0.748693 0.483793 T T T O
0.249898 0.749200 0.483868 T T T O
0.000019 0.499965 0.359852 T T T O
0.249891 0.499173 0.361564 T T T O
0.124386 0.594038 0.438964 T T T O
0.375139 0.594546 0.436313 T T T O
0.124690 0.845289 0.312632 T T T O
0.374802 0.845530 0.313005 T T T O
0.500000 0.750000 0.139610 F F F O
0.750000 0.750000 0.139610 F F F O
0.500000 0.500000 0.014610 F F F O
0.750000 0.500000 0.014610 F F F O
0.625000 0.904220 0.187500 F F F O
0.875000 0.904220 0.187500 F F F O
0.625000 0.654220 0.062500 F F F O
0.875000 0.654220 0.062500 F F F O
0.500000 0.750000 0.235390 F F F O
0.750000 0.750000 0.235390 F F F O
0.500000 0.500000 0.110390 F F F O
0.750000 0.500000 0.110390 F F F O
0.625000 0.595780 0.187500 F F F O
0.875000 0.595780 0.187500 F F F O
0.625000 0.845780 0.062500 F F F O
0.875000 0.845780 0.062500 F F F O
0.499986 0.750025 0.389924 T T T O
0.750019 0.748767 0.389620 T T T O
0.499981 0.499840 0.264990 T T T O
0.749847 0.499845 0.264787 T T T O
0.624460 0.903516 0.438565 T T T O
0.875027 0.902936 0.435445 T T T O
0.624721 0.653732 0.312710 T T T O
0.874685 0.653532 0.312862 T T T O
0.499958 0.749665 0.484038 T T T O
0.750085 0.749244 0.483868 T T T O
0.499990 0.499131 0.360920 T T T O
0.750080 0.499136 0.361585 T T T O
0.624859 0.594499 0.436364 T T T O
0.875582 0.594015 0.438945 T T T O
0.625183 0.845511 0.313019 T T T O
0.875291 0.845310 0.312634 T T T O
0.246695 0.998090 0.511427 T T T O
0.252560 0.499004 0.511895 T T T O
0.747510 0.499097 0.511940 T T T O
0.999593 0.997891 0.510265 T T T O
0.499984 0.498361 0.510738 T T T O
0.499971 0.624013 0.528299 T T T O
