Ir  O Ir  O 
 1.0000000000000000
    12.8085319999999996    0.0000000000000000    0.0000000000000000
     0.0000000000000000    6.4702430000000000    0.0000000000000000
     0.0000000000000000    0.0000000000000000   25.8809719999999999
  16  34  16  34
Selective dynamics
Cartesian
  1.6010664999999999  3.2351215000000000  4.8526822500000000   F   F   F
  4.8031994999999998  3.2351215000000000  4.8526822500000000   F   F   F
  1.6010664999999999  0.0000000000000000  1.6175607500000000   F   F   F
  4.8031994999999998  0.0000000000000000  1.6175607500000000   F   F   F
  0.0000000000000000  3.2351215000000000  1.6175607500000000   F   F   F
  3.2021329999999999  3.2351215000000000  1.6175607500000000   F   F   F
  0.0000000000000000  0.0000000000000000  4.8526822500000000   F   F   F
  3.2021329999999999  0.0000000000000000  4.8526822500000000   F   F   F
  1.6006683516454530  3.2351215000000000 11.3373965155737491   T   T   T
  4.8048243027664057  3.2351215000000000 11.3434053156096244   T   T   T
  1.6005408135735599  0.0000000000000000  8.0996140349773995   T   T   T
  4.7972493629819359  0.0000000000000000  8.0924564557365066   T   T   T
  0.0011980627858910  3.2351215000000000  8.0997422779385992   T   T   T
  3.2010981274892258  3.2351215000000000  8.0992553691784170   T   T   T
 -0.0047891700828572  0.0000000000000000 11.4262499597472758   T   T   T
  3.2091921972511281  0.0000000000000000 11.4328036985291153   T   T   T
  0.0000000000000000  3.2351215000000000  3.6132425009199376   F   F   F
  3.2021329999999999  3.2351215000000000  3.6132425009199376   F   F   F
  0.0000000000000000  0.0000000000000000  0.3781210009199379   F   F   F
  3.2021329999999999  0.0000000000000000  0.3781210009199379   F   F   F
  1.6010664999999999  5.2308032509199833  4.8526822500000000   F   F   F
  4.8031994999999998  5.2308032509199833  4.8526822500000000   F   F   F
  1.6010664999999999  1.9956817509199831  1.6175607500000000   F   F   F
  4.8031994999999998  1.9956817509199831  1.6175607500000000   F   F   F
  0.0000000000000000  3.2351215000000000  6.0921219990800619   F   F   F
  3.2021329999999999  3.2351215000000000  6.0921219990800619   F   F   F
  0.0000000000000000  0.0000000000000000  2.8570004990800624   F   F   F
  3.2021329999999999  0.0000000000000000  2.8570004990800624   F   F   F
  1.6010664999999999  1.2394397490800166  4.8526822500000000   F   F   F
  4.8031994999999998  1.2394397490800166  4.8526822500000000   F   F   F
  1.6010664999999999  4.4745612490800166  1.6175607500000000   F   F   F
  4.8031994999999998  4.4745612490800166  1.6175607500000000   F   F   F
 -0.0010189436975410  3.2351215000000000 10.0843029018949704   T   T   T
  3.2039134115957850  3.2351215000000000 10.0852262749037802   T   T   T
  0.0035634737313653  0.0000000000000000  6.8540230634384445   T   T   T
  3.1977803932734119  0.0000000000000000  6.8524766103772441   T   T   T
  1.6013253055963144  5.2340593082315836 11.2891205997769362   T   T   T
  4.8171726521070095  5.2321907032490333 11.3270994190177898   T   T   T
  1.5991699447008414  1.9902761962946629  8.0940599075134010   T   T   T
  4.8021420063554867  1.9905334284141811  8.0869858671997559   T   T   T
 -0.0022149701224456  3.2351215000000000 12.5181744240903452   T   T   T
  3.2006322053714156  3.2351215000000000 12.5174371904629762   T   T   T
 -0.0032430834876011  0.0000000000000000  9.3445244027602072   T   T   T
  3.2047640416207148  0.0000000000000000  9.3425871163070191   T   T   T
  1.6013253055963144  1.2361836917684175 11.2891205997769362   T   T   T
  4.8171726521070095  1.2380522967509657 11.3270994190177898   T   T   T
  1.5991699447008414  4.4799668037053362  8.0940599075134010   T   T   T
  4.8021420063554867  4.4797095715858193  8.0869858671997559   T   T   T
  3.1895766700260650  0.0000000000000000 13.2281516736371483   T   T   T
  0.0126256029229099  0.0000000000000000 13.2218884852609335   T   T   T
  8.0053324999999997  3.2351215000000000  4.8526822500000000   F   F   F
 11.2074654999999996  3.2351215000000000  4.8526822500000000   F   F   F
  8.0053324999999997  0.0000000000000000  1.6175607500000000   F   F   F
 11.2074654999999996  0.0000000000000000  1.6175607500000000   F   F   F
  6.4042659999999998  3.2351215000000000  1.6175607500000000   F   F   F
  9.6063989999999997  3.2351215000000000  1.6175607500000000   F   F   F
  6.4042659999999998  0.0000000000000000  4.8526822500000000   F   F   F
  9.6063989999999997  0.0000000000000000  4.8526822500000000   F   F   F
  8.0057709853025987  3.2351215000000000 11.3182505642938001   T   T   T
 11.2062906279368448  3.2351215000000000 11.3441521978810229   T   T   T
  8.0047133845469478  0.0000000000000000  8.0967517168480239   T   T   T
 11.2129420524192280  0.0000000000000000  8.0917633445944954   T   T   T
  6.4021787918764055  3.2351215000000000  8.0954013077184293   T   T   T
  9.6085279434163109  3.2351215000000000  8.0942938498651582   T   T   T
  6.4270553965110029  0.0000000000000000 11.3889784764269084   T   T   T
  9.5806150695404586  0.0000000000000000 11.3935631497598973   T   T   T
  6.4042659999999998  3.2351215000000000  3.6132425009199376   F   F   F
  9.6063989999999997  3.2351215000000000  3.6132425009199376   F   F   F
  6.4042659999999998  0.0000000000000000  0.3781210009199379   F   F   F
  9.6063989999999997  0.0000000000000000  0.3781210009199379   F   F   F
  8.0053324999999997  5.2308032509199833  4.8526822500000000   F   F   F
 11.2074654999999996  5.2308032509199833  4.8526822500000000   F   F   F
  8.0053324999999997  1.9956817509199831  1.6175607500000000   F   F   F
 11.2074654999999996  1.9956817509199831  1.6175607500000000   F   F   F
  6.4042659999999998  3.2351215000000000  6.0921219990800619   F   F   F
  9.6063989999999997  3.2351215000000000  6.0921219990800619   F   F   F
  6.4042659999999998  0.0000000000000000  2.8570004990800624   F   F   F
  9.6063989999999997  0.0000000000000000  2.8570004990800624   F   F   F
  8.0053324999999997  1.2394397490800166  4.8526822500000000   F   F   F
 11.2074654999999996  1.2394397490800166  4.8526822500000000   F   F   F
  8.0053324999999997  4.4745612490800166  1.6175607500000000   F   F   F
 11.2074654999999996  4.4745612490800166  1.6175607500000000   F   F   F
  6.3966780439561086  3.2351215000000000 10.0750833521629630   T   T   T
  9.6148547032640099  3.2351215000000000 10.0750124865878572   T   T   T
  6.4044435676051066  0.0000000000000000  6.8566807216286927   T   T   T
  9.6051344081533383  0.0000000000000000  6.8523597061886390   T   T   T
  8.0060488852131790  5.2203944983204060 11.2162922428567349   T   T   T
 11.1918785822387985  5.2315500733219578 11.3151578774195478   T   T   T
  8.0031296860555425  1.9913505409375767  8.0868623317875077   T   T   T
 11.2122119182078865  1.9905503324732703  8.0847676290510844   T   T   T
  6.4197250859433375  3.2351215000000000 12.5088025721191087   T   T   T
  9.5947102033107363  3.2351215000000000 12.5102709736433475   T   T   T
  6.3858706219281229  0.0000000000000000  9.3331564338614239   T   T   T
  9.6231573719258865  0.0000000000000000  9.3296062994224656   T   T   T
  8.0060488852131790  1.2498485016795946 11.2162922428567349   T   T   T
 11.1918785822387985  1.2386929266780433 11.3151578774195478   T   T   T
  8.0031296860555425  4.4788924590624246  8.0868623317875077   T   T   T
 11.2122119182078865  4.4796926675267290  8.0847676290510844   T   T   T
  9.3059840760760313  0.0000000000000000 13.2122776764527945   T   T   T
  6.7138064991656385  0.0000000000000000 13.2099791090686001   T   T   T
