Ir  O Ir  O                             
   1.00000000000000     
    12.8085319999999996    0.0000000000000000    0.0000000000000000
     0.0000000000000000    6.4702430000000000    0.0000000000000000
     0.0000000000000000    0.0000000000000000   25.8809719999999999
   Ir   O    Ir   O 
    16    34    16    34
Selective dynamics
Direct
  0.1250000000000000  0.5000000000000000  0.1875000000000000   F   F   F
  0.3750000000000000  0.5000000000000000  0.1875000000000000   F   F   F
  0.1250000000000000  0.0000000000000000  0.0625000000000000   F   F   F
  0.3750000000000000  0.0000000000000000  0.0625000000000000   F   F   F
  0.0000000000000000  0.5000000000000000  0.0625000000000000   F   F   F
  0.2500000000000000  0.5000000000000000  0.0625000000000000   F   F   F
  0.0000000000000000  0.0000000000000000  0.1875000000000000   F   F   F
  0.2500000000000000  0.0000000000000000  0.1875000000000000   F   F   F
  0.1249535840509068  0.5000000000000000  0.4382272191460699   T   T   T
  0.3752830073233503  0.5000000000000000  0.4388902682919973   T   T   T
  0.1249179701296586 -0.0000000000000000  0.3133353356912911   T   T   T
  0.3740783231485045 -0.0000000000000000  0.3126123053153965   T   T   T
  0.0001375379637136  0.5000000000000000  0.3131295044761500   T   T   T
  0.2497899674570701  0.5000000000000000  0.3131080172494685   T   T   T
  0.9983418544009851 -0.0000000000000000  0.4424684216236177   T   T   T
  0.2511640984439878 -0.0000000000000000  0.4425042682685708   T   T   T
  0.0000000000000000  0.5000000000000000  0.1396099999999976   F   F   F
  0.2500000000000000  0.5000000000000000  0.1396099999999976   F   F   F
  0.0000000000000000  0.0000000000000000  0.0146099999999976   F   F   F
  0.2500000000000000  0.0000000000000000  0.0146099999999976   F   F   F
  0.1250000000000000  0.8084399999999974  0.1875000000000000   F   F   F
  0.3750000000000000  0.8084399999999974  0.1875000000000000   F   F   F
  0.1250000000000000  0.3084399999999974  0.0625000000000000   F   F   F
  0.3750000000000000  0.3084399999999974  0.0625000000000000   F   F   F
  0.0000000000000000  0.5000000000000000  0.2353900000000024   F   F   F
  0.2500000000000000  0.5000000000000000  0.2353900000000024   F   F   F
  0.0000000000000000  0.0000000000000000  0.1103900000000024   F   F   F
  0.2500000000000000  0.0000000000000000  0.1103900000000024   F   F   F
  0.1250000000000000  0.1915600000000026  0.1875000000000000   F   F   F
  0.3750000000000000  0.1915600000000026  0.1875000000000000   F   F   F
  0.1250000000000000  0.6915600000000026  0.0625000000000000   F   F   F
  0.3750000000000000  0.6915600000000026  0.0625000000000000   F   F   F
  0.9996060528416576  0.5000000000000000  0.3899710096585630   T   T   T
  0.2504275494962719  0.5000000000000000  0.3898769903496073   T   T   T
  0.0006642008210169 -0.0000000000000000  0.2648355593279217   T   T   T
  0.2492038428509465 -0.0000000000000000  0.2648184892916037   T   T   T
  0.1247219889885378  0.8094399181985772  0.4362776135450684   T   T   T
  0.3779771930501641  0.8091482917190801  0.4405267391900765   T   T   T
  0.1248195538536827  0.3076137041596856  0.3130100107433116   T   T   T
  0.3746150089689629  0.3076823418892836  0.3123216262882743   T   T   T
  0.0001982817100489  0.5000000000000000  0.4840308561140987   T   T   T
  0.2497688007718344  0.5000000000000000  0.4841223052999553   T   T   T
  0.9991929669125867 -0.0000000000000000  0.3615700837896691   T   T   T
  0.2505901387623597 -0.0000000000000000  0.3616167377743419   T   T   T
  0.1247219889885378  0.1905600818014231  0.4362776135450684   T   T   T
  0.3779771930501641  0.1908517082809200  0.4405267391900765   T   T   T
  0.1248195538536827  0.6923862958403114  0.3130100107433116   T   T   T
  0.3746150089689629  0.6923176581107091  0.3123216262882743   T   T   T
  0.2469774548528381 -0.0000000000000000  0.5118705387406474   T   T   T
  0.0033229061268922 -0.0000000000000000  0.5117861700199292   T   T   T
  0.6250000000000000  0.5000000000000000  0.1875000000000000   F   F   F
  0.8750000000000000  0.5000000000000000  0.1875000000000000   F   F   F
  0.6250000000000000  0.0000000000000000  0.0625000000000000   F   F   F
  0.8750000000000000  0.0000000000000000  0.0625000000000000   F   F   F
  0.5000000000000000  0.5000000000000000  0.0625000000000000   F   F   F
  0.7500000000000000  0.5000000000000000  0.0625000000000000   F   F   F
  0.5000000000000000  0.0000000000000000  0.1875000000000000   F   F   F
  0.7500000000000000  0.0000000000000000  0.1875000000000000   F   F   F
  0.6248401842229308  0.5000000000000000  0.4360305413893150   T   T   T
  0.8745031267214706  0.5000000000000000  0.4389305196109475   T   T   T
  0.6248000831237229 -0.0000000000000000  0.3131497288721086   T   T   T
  0.8757249355700196 -0.0000000000000000  0.3125696543369605   T   T   T
  0.4995336223772677  0.5000000000000000  0.3126120372520035   T   T   T
  0.7502842915233207  0.5000000000000000  0.3126284984021269   T   T   T
  0.5055013610932182 -0.0000000000000000  0.4400722202630061   T   T   T
  0.7440312205065421 -0.0000000000000000  0.4398981961718010   T   T   T
  0.5000000000000000  0.5000000000000000  0.1396099999999976   F   F   F
  0.7500000000000000  0.5000000000000000  0.1396099999999976   F   F   F
  0.5000000000000000  0.0000000000000000  0.0146099999999976   F   F   F
  0.7500000000000000  0.0000000000000000  0.0146099999999976   F   F   F
  0.6250000000000000  0.8084399999999974  0.1875000000000000   F   F   F
  0.8750000000000000  0.8084399999999974  0.1875000000000000   F   F   F
  0.6250000000000000  0.3084399999999974  0.0625000000000000   F   F   F
  0.8750000000000000  0.3084399999999974  0.0625000000000000   F   F   F
  0.5000000000000000  0.5000000000000000  0.2353900000000024   F   F   F
  0.7500000000000000  0.5000000000000000  0.2353900000000024   F   F   F
  0.5000000000000000  0.0000000000000000  0.1103900000000024   F   F   F
  0.7500000000000000  0.0000000000000000  0.1103900000000024   F   F   F
  0.6250000000000000  0.1915600000000026  0.1875000000000000   F   F   F
  0.8750000000000000  0.1915600000000026  0.1875000000000000   F   F   F
  0.6250000000000000  0.6915600000000026  0.0625000000000000   F   F   F
  0.8750000000000000  0.6915600000000026  0.0625000000000000   F   F   F
  0.4982737051239531  0.5000000000000000  0.3889152796851985   T   T   T
  0.7515791733413051  0.5000000000000000  0.3889746135249305   T   T   T
  0.5000278090685834 -0.0000000000000000  0.2649565958442336   T   T   T
  0.7497650434448220 -0.0000000000000000  0.2648420552494795   T   T   T
  0.6247325336712588  0.8049160417519231  0.4284210880863348   T   T   T
  0.8716508345835779  0.8092361503835170  0.4405564710988297   T   T   T
  0.6247235327881495  0.3080579928904290  0.3122977932852625   T   T   T
  0.8755140265360735  0.3078424653775111  0.3123171061267259   T   T   T
  0.5024714798880715  0.5000000000000000  0.4829845472342144   T   T   T
  0.7470396117574282  0.5000000000000000  0.4830824493171110   T   T   T
  0.4960545353721438 -0.0000000000000000  0.3605287575349286   T   T   T
  0.7533494634812627 -0.0000000000000000  0.3604002212020010   T   T   T
  0.6247325336712588  0.1950839582480770  0.4284210880863348   T   T   T
  0.8716508345835779  0.1907638496164828  0.4405564710988297   T   T   T
  0.6247235327881495  0.6919420071095708  0.3122977932852625   T   T   T
  0.8755140265360735  0.6921575346224824  0.3123171061267259   T   T   T
  0.6914543001902381 -0.0000000000000000  0.5084363516567859   T   T   T
  0.5586609462671077 -0.0000000000000000  0.5085981318509507   T   T   T
 
  0.00000000E+00  0.00000000E+00  0.00000000E+00
  0.00000000E+00  0.00000000E+00  0.00000000E+00
  0.00000000E+00  0.00000000E+00  0.00000000E+00
  0.00000000E+00  0.00000000E+00  0.00000000E+00
  0.00000000E+00  0.00000000E+00  0.00000000E+00
  0.00000000E+00  0.00000000E+00  0.00000000E+00
  0.00000000E+00  0.00000000E+00  0.00000000E+00
  0.00000000E+00  0.00000000E+00  0.00000000E+00
  0.00000000E+00  0.00000000E+00  0.00000000E+00
  0.00000000E+00  0.00000000E+00  0.00000000E+00
  0.00000000E+00  0.00000000E+00  0.00000000E+00
  0.00000000E+00  0.00000000E+00  0.00000000E+00
  0.00000000E+00  0.00000000E+00  0.00000000E+00
  0.00000000E+00  0.00000000E+00  0.00000000E+00
  0.00000000E+00  0.00000000E+00  0.00000000E+00
  0.00000000E+00  0.00000000E+00  0.00000000E+00
  0.00000000E+00  0.00000000E+00  0.00000000E+00
  0.00000000E+00  0.00000000E+00  0.00000000E+00
  0.00000000E+00  0.00000000E+00  0.00000000E+00
  0.00000000E+00  0.00000000E+00  0.00000000E+00
  0.00000000E+00  0.00000000E+00  0.00000000E+00
  0.00000000E+00  0.00000000E+00  0.00000000E+00
  0.00000000E+00  0.00000000E+00  0.00000000E+00
  0.00000000E+00  0.00000000E+00  0.00000000E+00
  0.00000000E+00  0.00000000E+00  0.00000000E+00
  0.00000000E+00  0.00000000E+00  0.00000000E+00
  0.00000000E+00  0.00000000E+00  0.00000000E+00
  0.00000000E+00  0.00000000E+00  0.00000000E+00
  0.00000000E+00  0.00000000E+00  0.00000000E+00
  0.00000000E+00  0.00000000E+00  0.00000000E+00
  0.00000000E+00  0.00000000E+00  0.00000000E+00
  0.00000000E+00  0.00000000E+00  0.00000000E+00
  0.00000000E+00  0.00000000E+00  0.00000000E+00
  0.00000000E+00  0.00000000E+00  0.00000000E+00
  0.00000000E+00  0.00000000E+00  0.00000000E+00
  0.00000000E+00  0.00000000E+00  0.00000000E+00
  0.00000000E+00  0.00000000E+00  0.00000000E+00
  0.00000000E+00  0.00000000E+00  0.00000000E+00
  0.00000000E+00  0.00000000E+00  0.00000000E+00
  0.00000000E+00  0.00000000E+00  0.00000000E+00
  0.00000000E+00  0.00000000E+00  0.00000000E+00
  0.00000000E+00  0.00000000E+00  0.00000000E+00
  0.00000000E+00  0.00000000E+00  0.00000000E+00
  0.00000000E+00  0.00000000E+00  0.00000000E+00
  0.00000000E+00  0.00000000E+00  0.00000000E+00
  0.00000000E+00  0.00000000E+00  0.00000000E+00
  0.00000000E+00  0.00000000E+00  0.00000000E+00
  0.00000000E+00  0.00000000E+00  0.00000000E+00
  0.00000000E+00  0.00000000E+00  0.00000000E+00
  0.00000000E+00  0.00000000E+00  0.00000000E+00
  0.00000000E+00  0.00000000E+00  0.00000000E+00
  0.00000000E+00  0.00000000E+00  0.00000000E+00
  0.00000000E+00  0.00000000E+00  0.00000000E+00
  0.00000000E+00  0.00000000E+00  0.00000000E+00
  0.00000000E+00  0.00000000E+00  0.00000000E+00
  0.00000000E+00  0.00000000E+00  0.00000000E+00
  0.00000000E+00  0.00000000E+00  0.00000000E+00
  0.00000000E+00  0.00000000E+00  0.00000000E+00
  0.00000000E+00  0.00000000E+00  0.00000000E+00
  0.00000000E+00  0.00000000E+00  0.00000000E+00
  0.00000000E+00  0.00000000E+00  0.00000000E+00
  0.00000000E+00  0.00000000E+00  0.00000000E+00
  0.00000000E+00  0.00000000E+00  0.00000000E+00
  0.00000000E+00  0.00000000E+00  0.00000000E+00
  0.00000000E+00  0.00000000E+00  0.00000000E+00
  0.00000000E+00  0.00000000E+00  0.00000000E+00
  0.00000000E+00  0.00000000E+00  0.00000000E+00
  0.00000000E+00  0.00000000E+00  0.00000000E+00
  0.00000000E+00  0.00000000E+00  0.00000000E+00
  0.00000000E+00  0.00000000E+00  0.00000000E+00
  0.00000000E+00  0.00000000E+00  0.00000000E+00
  0.00000000E+00  0.00000000E+00  0.00000000E+00
  0.00000000E+00  0.00000000E+00  0.00000000E+00
  0.00000000E+00  0.00000000E+00  0.00000000E+00
  0.00000000E+00  0.00000000E+00  0.00000000E+00
  0.00000000E+00  0.00000000E+00  0.00000000E+00
  0.00000000E+00  0.00000000E+00  0.00000000E+00
  0.00000000E+00  0.00000000E+00  0.00000000E+00
  0.00000000E+00  0.00000000E+00  0.00000000E+00
  0.00000000E+00  0.00000000E+00  0.00000000E+00
  0.00000000E+00  0.00000000E+00  0.00000000E+00
  0.00000000E+00  0.00000000E+00  0.00000000E+00
  0.00000000E+00  0.00000000E+00  0.00000000E+00
  0.00000000E+00  0.00000000E+00  0.00000000E+00
  0.00000000E+00  0.00000000E+00  0.00000000E+00
  0.00000000E+00  0.00000000E+00  0.00000000E+00
  0.00000000E+00  0.00000000E+00  0.00000000E+00
  0.00000000E+00  0.00000000E+00  0.00000000E+00
  0.00000000E+00  0.00000000E+00  0.00000000E+00
  0.00000000E+00  0.00000000E+00  0.00000000E+00
  0.00000000E+00  0.00000000E+00  0.00000000E+00
  0.00000000E+00  0.00000000E+00  0.00000000E+00
  0.00000000E+00  0.00000000E+00  0.00000000E+00
  0.00000000E+00  0.00000000E+00  0.00000000E+00
  0.00000000E+00  0.00000000E+00  0.00000000E+00
  0.00000000E+00  0.00000000E+00  0.00000000E+00
  0.00000000E+00  0.00000000E+00  0.00000000E+00
  0.00000000E+00  0.00000000E+00  0.00000000E+00
  0.00000000E+00  0.00000000E+00  0.00000000E+00
  0.00000000E+00  0.00000000E+00  0.00000000E+00
