Ir  O Ir  O 
 1.0000000000000000
    12.8085319999999996    0.0000000000000000    0.0000000000000000
     0.0000000000000000    6.4702430000000000    0.0000000000000000
     0.0000000000000000    0.0000000000000000   25.8809719999999999
  16  34  16  34
Selective dynamics
Cartesian
  1.6010664999999999  3.2351215000000000  4.8526822500000000   F   F   F
  4.8031994999999998  3.2351215000000000  4.8526822500000000   F   F   F
  1.6010664999999999  0.0000000000000000  1.6175607500000000   F   F   F
  4.8031994999999998  0.0000000000000000  1.6175607500000000   F   F   F
  0.0000000000000000  3.2351215000000000  1.6175607500000000   F   F   F
  3.2021329999999999  3.2351215000000000  1.6175607500000000   F   F   F
  0.0000000000000000  0.0000000000000000  4.8526822500000000   F   F   F
  3.2021329999999999  0.0000000000000000  4.8526822500000000   F   F   F
  1.6018931543575199  3.2351215000000000 11.3400380775454295   T   T   T
  4.8051794867839428  3.2351215000000000 11.3549274711018224   T   T   T
  1.6004313726050634  0.0000000000000000  8.1075224924824028   T   T   T
  4.7881841206475890  0.0000000000000000  8.0903104262156624   T   T   T
  0.0030912730765931  3.2351215000000000  8.1014843092681055   T   T   T
  3.1997878488183464  3.2351215000000000  8.1018807460630828   T   T   T
 -0.0184320809076351  0.0000000000000000 11.4483797793717184   T   T   T
  3.2192398898834611  0.0000000000000000 11.4515324882330027   T   T   T
  0.0000000000000000  3.2351215000000000  3.6132425009199376   F   F   F
  3.2021329999999999  3.2351215000000000  3.6132425009199376   F   F   F
  0.0000000000000000  0.0000000000000000  0.3781210009199379   F   F   F
  3.2021329999999999  0.0000000000000000  0.3781210009199379   F   F   F
  1.6010664999999999  5.2308032509199833  4.8526822500000000   F   F   F
  4.8031994999999998  5.2308032509199833  4.8526822500000000   F   F   F
  1.6010664999999999  1.9956817509199831  1.6175607500000000   F   F   F
  4.8031994999999998  1.9956817509199831  1.6175607500000000   F   F   F
  0.0000000000000000  3.2351215000000000  6.0921219990800619   F   F   F
  3.2021329999999999  3.2351215000000000  6.0921219990800619   F   F   F
  0.0000000000000000  0.0000000000000000  2.8570004990800624   F   F   F
  3.2021329999999999  0.0000000000000000  2.8570004990800624   F   F   F
  1.6010664999999999  1.2394397490800166  4.8526822500000000   F   F   F
  4.8031994999999998  1.2394397490800166  4.8526822500000000   F   F   F
  1.6010664999999999  4.4745612490800166  1.6175607500000000   F   F   F
  4.8031994999999998  4.4745612490800166  1.6175607500000000   F   F   F
 -0.0018946502944650  3.2351215000000000 10.0902793414714367   T   T   T
  3.2067790140422310  3.2351215000000000 10.0901536034340094   T   T   T
  0.0095141448678101  0.0000000000000000  6.8517288048887162   T   T   T
  3.1916563732702059  0.0000000000000000  6.8521526011805243   T   T   T
  1.6004224530974516  5.2372969281695845 11.2922640260074658   T   T   T
  4.8383246646136344  5.2325964837436283 11.3868680561255360   T   T   T
  1.5993441798365964  1.9901533842690862  8.0992304128122043   T   T   T
  4.7975907779573532  1.9907444162965113  8.0822369786757342   T   T   T
  0.0046518141967352  3.2351215000000000 12.5238525744755940   T   T   T
  3.1984931563160570  3.2351215000000000 12.5268045210372261   T   T   T
 -0.0074305378845966  0.0000000000000000  9.3551512103109555   T   T   T
  3.2081553201605901  0.0000000000000000  9.3551161725627789   T   T   T
  1.6004224530974516  1.2329460718304150 11.2922640260074658   T   T   T
  4.8383246646136344  1.2376465162563706 11.3868680561255360   T   T   T
  1.5993441798365964  4.4800896157309129  8.0992304128122043   T   T   T
  4.7975907779573532  4.4794985837034886  8.0822369786757342   T   T   T
  3.1684372917157759  0.0000000000000000 13.2447879996560030   T   T   T
  0.0388526226686955  0.0000000000000000 13.2425400242864715   T   T   T
  8.0053324999999997  3.2351215000000000  4.8526822500000000   F   F   F
 11.2074654999999996  3.2351215000000000  4.8526822500000000   F   F   F
  8.0053324999999997  0.0000000000000000  1.6175607500000000   F   F   F
 11.2074654999999996  0.0000000000000000  1.6175607500000000   F   F   F
  6.4042659999999998  3.2351215000000000  1.6175607500000000   F   F   F
  9.6063989999999997  3.2351215000000000  1.6175607500000000   F   F   F
  6.4042659999999998  0.0000000000000000  4.8526822500000000   F   F   F
  9.6063989999999997  0.0000000000000000  4.8526822500000000   F   F   F
  8.0047249034412680  3.2351215000000000 11.2895990533986570   T   T   T
 11.2058000917345488  3.2351215000000000 11.3539007727166261   T   T   T
  8.0036635352285135  0.0000000000000000  8.1007499423788829   T   T   T
 11.2217308729407375  0.0000000000000000  8.0881929339679743   T   T   T
  6.3989126117174253  3.2351215000000000  8.0906467696268685   T   T   T
  9.6116901575341647  3.2351215000000000  8.0902876361984397   T   T   T
  6.4664299678038830  0.0000000000000000 11.3571047799171367   T   T   T
  9.5415839394781230  0.0000000000000000 11.3554145109048719   T   T   T
  6.4042659999999998  3.2351215000000000  3.6132425009199376   F   F   F
  9.6063989999999997  3.2351215000000000  3.6132425009199376   F   F   F
  6.4042659999999998  0.0000000000000000  0.3781210009199379   F   F   F
  9.6063989999999997  0.0000000000000000  0.3781210009199379   F   F   F
  8.0053324999999997  5.2308032509199833  4.8526822500000000   F   F   F
 11.2074654999999996  5.2308032509199833  4.8526822500000000   F   F   F
  8.0053324999999997  1.9956817509199831  1.6175607500000000   F   F   F
 11.2074654999999996  1.9956817509199831  1.6175607500000000   F   F   F
  6.4042659999999998  3.2351215000000000  6.0921219990800619   F   F   F
  9.6063989999999997  3.2351215000000000  6.0921219990800619   F   F   F
  6.4042659999999998  0.0000000000000000  2.8570004990800624   F   F   F
  9.6063989999999997  0.0000000000000000  2.8570004990800624   F   F   F
  8.0053324999999997  1.2394397490800166  4.8526822500000000   F   F   F
 11.2074654999999996  1.2394397490800166  4.8526822500000000   F   F   F
  8.0053324999999997  4.4745612490800166  1.6175607500000000   F   F   F
 11.2074654999999996  4.4745612490800166  1.6175607500000000   F   F   F
  6.3840563327213191  3.2351215000000000 10.0674560509907085   T   T   T
  9.6270874091929386  3.2351215000000000 10.0672247010767180   T   T   T
  6.4042542811421450  0.0000000000000000  6.8571161594082337   T   T   T
  9.6033916908642176  0.0000000000000000  6.8534089523177997   T   T   T
  8.0034360828415068  5.2054901591714877 11.1366347241125272   T   T   T
 11.1710195389327325  5.2334573196230236 11.3806383973738239   T   T   T
  8.0027067224818840  1.9934914057619812  8.0849688166122533   T   T   T
 11.2166203635142878  1.9914846923120266  8.0798563377435606   T   T   T
  6.4323123279731309  3.2351215000000000 12.5011112274260316   T   T   T
  9.5769185412187294  3.2351215000000000 12.5014078613374995   T   T   T
  6.3581157863451878  0.0000000000000000  9.3285639552964739   T   T   T
  9.6482992529504124  0.0000000000000000  9.3243832393469486   T   T   T
  8.0034360828415068  1.2647528408285127 11.1366347241125272   T   T   T
 11.1710195389327325  1.2367856803769766 11.3806383973738239   T   T   T
  8.0027067224818840  4.4767515942380181  8.0849688166122533   T   T   T
 11.2166203635142878  4.4787583076879720  8.0798563377435606   T   T   T
  8.8564344602167306  0.0000000000000000 13.2150969737788628   T   T   T
  7.1643534177321557  0.0000000000000000 13.2162890103207395   T   T   T
