Ir  O Ir  O 
 1.0000000000000000
    12.8085319999999996    0.0000000000000000    0.0000000000000000
     0.0000000000000000    6.4702430000000000    0.0000000000000000
     0.0000000000000000    0.0000000000000000   25.8809719999999999
  16  32  16  34
Selective dynamics
Cartesian
  1.6010664999999999  3.2351215000000000  4.8526822500000000   F   F   F
  4.8031994999999998  3.2351215000000000  4.8526822500000000   F   F   F
  1.6010664999999999  0.0000000000000000  1.6175607500000000   F   F   F
  4.8031994999999998  0.0000000000000000  1.6175607500000000   F   F   F
  0.0000000000000000  3.2351215000000000  1.6175607500000000   F   F   F
  3.2021329999999999  3.2351215000000000  1.6175607500000000   F   F   F
  0.0000000000000000  0.0000000000000000  4.8526822500000000   F   F   F
  3.2021329999999999  0.0000000000000000  4.8526822500000000   F   F   F
  1.5991710616213264  3.2346241009934920 11.3746787378205454   T   T   T
  4.8036296708782613  3.2333380587776288 11.3765140986721658   T   T   T
  1.5970075965331023  0.0022253481351908  8.0750757934836024   T   T   T
  4.8025789622515669  0.0026895938316401  8.0813615148575462   T   T   T
 -0.0022912361882095  3.2373218996179594  8.1099598879425070   T   T   T
  3.1976989253449855  3.2370601574415940  8.1093752223563520   T   T   T
 -0.0253839526104734 -0.0019379858922515 11.2652757979829392   T   T   T
  3.2252721614388933 -0.0007909717077283 11.2740384827779856   T   T   T
  0.0000000000000000  3.2351215000000000  3.6132425009199376   F   F   F
  3.2021329999999999  3.2351215000000000  3.6132425009199376   F   F   F
  0.0000000000000000  0.0000000000000000  0.3781210009199379   F   F   F
  3.2021329999999999  0.0000000000000000  0.3781210009199379   F   F   F
  1.6010664999999999  5.2308032509199833  4.8526822500000000   F   F   F
  4.8031994999999998  5.2308032509199833  4.8526822500000000   F   F   F
  1.6010664999999999  1.9956817509199831  1.6175607500000000   F   F   F
  4.8031994999999998  1.9956817509199831  1.6175607500000000   F   F   F
  0.0000000000000000  3.2351215000000000  6.0921219990800619   F   F   F
  3.2021329999999999  3.2351215000000000  6.0921219990800619   F   F   F
  0.0000000000000000  0.0000000000000000  2.8570004990800624   F   F   F
  3.2021329999999999  0.0000000000000000  2.8570004990800624   F   F   F
  1.6010664999999999  1.2394397490800166  4.8526822500000000   F   F   F
  4.8031994999999998  1.2394397490800166  4.8526822500000000   F   F   F
  1.6010664999999999  4.4745612490800166  1.6175607500000000   F   F   F
  4.8031994999999998  4.4745612490800166  1.6175607500000000   F   F   F
 -0.0040651573381997  3.2336127392902418 10.1090412030122749   T   T   T
  3.2018348936932752  3.2342140906303767 10.1073817194540858   T   T   T
  0.0019492996447895  0.0038403974958796  6.8349830593853591   T   T   T
  3.1953554877933685  0.0033068565076138  6.8380601967206678   T   T   T
  1.6005449383068233  5.2449382243449723 11.3981617256800991   T   T   T
  4.8209656621268842  5.2404459548484636 11.4519985533608839   T   T   T
  1.5951731972808947  1.9965077076961648  8.1050584905383651   T   T   T
  4.7973716530032213  1.9965980997664186  8.0905114951902135   T   T   T
 -0.0070135464241423  3.2365952609523316 12.5601678510444223   T   T   T
  3.2032878076206805  3.2317315501457791 12.5626069721791236   T   T   T
 -0.0030901355154096  0.0018416909324241  9.3029527244282217   T   T   T
  3.1951102993118510  0.0000506933759553  9.3108610253172301   T   T   T
  1.6001141028918489  1.2230109669762452 11.4012052262136674   T   T   T
  4.8202373085045842  1.2258054075033209 11.4566667368008837   T   T   T
  1.5955466843475050  4.4776894370481379  8.1054630530613210   T   T   T
  4.7971784333701928  4.4791008224616728  8.0920563043875688   T   T   T
  8.0053324999999997  3.2351215000000000  4.8526822500000000   F   F   F
 11.2074654999999996  3.2351215000000000  4.8526822500000000   F   F   F
  8.0053324999999997  0.0000000000000000  1.6175607500000000   F   F   F
 11.2074654999999996  0.0000000000000000  1.6175607500000000   F   F   F
  6.4042659999999998  3.2351215000000000  1.6175607500000000   F   F   F
  9.6063989999999997  3.2351215000000000  1.6175607500000000   F   F   F
  6.4042659999999998  0.0000000000000000  4.8526822500000000   F   F   F
  9.6063989999999997  0.0000000000000000  4.8526822500000000   F   F   F
  8.0014597998446337  3.2311012556712897 11.2905364626113922   T   T   T
 11.2002795388077061  3.2316925571917552 11.3723064614697407   T   T   T
  7.9994556259442318  0.0023170734627101  8.1047150130521093   T   T   T
 11.1989233593155255  0.0026588485435821  8.0762669529404558   T   T   T
  6.3969526180510279  3.2372897587077665  8.0930746713979307   T   T   T
  9.6065636190204255  3.2370561743048976  8.0935036909176290   T   T   T
  6.4634444458867337 -0.0037339895825504 11.3696962452398580   T   T   T
  9.5416266986726761 -0.0039332473813771 11.3633688017192611   T   T   T
  6.4042659999999998  3.2351215000000000  3.6132425009199376   F   F   F
  9.6063989999999997  3.2351215000000000  3.6132425009199376   F   F   F
  6.4042659999999998  0.0000000000000000  0.3781210009199379   F   F   F
  9.6063989999999997  0.0000000000000000  0.3781210009199379   F   F   F
  8.0053324999999997  5.2308032509199833  4.8526822500000000   F   F   F
 11.2074654999999996  5.2308032509199833  4.8526822500000000   F   F   F
  8.0053324999999997  1.9956817509199831  1.6175607500000000   F   F   F
 11.2074654999999996  1.9956817509199831  1.6175607500000000   F   F   F
  6.4042659999999998  3.2351215000000000  6.0921219990800619   F   F   F
  9.6063989999999997  3.2351215000000000  6.0921219990800619   F   F   F
  6.4042659999999998  0.0000000000000000  2.8570004990800624   F   F   F
  9.6063989999999997  0.0000000000000000  2.8570004990800624   F   F   F
  8.0053324999999997  1.2394397490800166  4.8526822500000000   F   F   F
 11.2074654999999996  1.2394397490800166  4.8526822500000000   F   F   F
  8.0053324999999997  4.4745612490800166  1.6175607500000000   F   F   F
 11.2074654999999996  4.4745612490800166  1.6175607500000000   F   F   F
  6.3754857619965994  3.2326882751947883 10.0731467947916755   T   T   T
  9.6240668432269558  3.2287408254080363 10.0729031829080693   T   T   T
  6.4061336780399163 -0.0000849560588616  6.8537794353591206   T   T   T
  9.5966013507622510 -0.0007264039796635  6.8493000046423926   T   T   T
  8.0020436857499568  5.2061116982790780 11.1080417343493814   T   T   T
 11.1852310680218920  5.2391543641954916 11.4342719891555102   T   T   T
  7.9998475045471142  1.9952838412642273  8.0858250822285260   T   T   T
 11.2086069599077831  1.9964826201270911  8.0885195058977857   T   T   T
  6.4405636325855484  3.2326899465339656 12.5110121416215883   T   T   T
  9.5647504074698695  3.2340045717184669 12.5079828743049859   T   T   T
  6.3527258801544964  0.0087606917264425  9.3339195820759144   T   T   T
  9.6454918640883509  0.0057082888735361  9.3291314151843423   T   T   T
  8.0013537954707914  1.2566815014483461 11.1222005380619677   T   T   T
 11.1862668891820025  1.2256401810717703 11.4420658026891857   T   T   T
  7.9987049950945126  4.4787228108775521  8.0899073160246413   T   T   T
 11.2084696691026036  4.4793822081380146  8.0918948332740133   T   T   T
  8.8530110365080255 -0.0149388903586061 13.2071780692837208   T   T   T
  7.1565213755658181 -0.0190387235534874 13.2099581103547976   T   T   T
