Ir  O Ir  O                             
   1.00000000000000     
    12.8085319999999996    0.0000000000000000    0.0000000000000000
     0.0000000000000000    6.4702430000000000    0.0000000000000000
     0.0000000000000000    0.0000000000000000   25.8809719999999999
   Ir   O    Ir   O 
    14    32    15    33
Selective dynamics
Direct
  0.1250000000000000  0.5000000000000000  0.1875000000000000   F   F   F
  0.3750000000000000  0.5000000000000000  0.1875000000000000   F   F   F
  0.1250000000000000  0.0000000000000000  0.0625000000000000   F   F   F
  0.3750000000000000  0.0000000000000000  0.0625000000000000   F   F   F
  0.0000000000000000  0.5000000000000000  0.0625000000000000   F   F   F
  0.2500000000000000  0.5000000000000000  0.0625000000000000   F   F   F
  0.0000000000000000  0.0000000000000000  0.1875000000000000   F   F   F
  0.2500000000000000  0.0000000000000000  0.1875000000000000   F   F   F
  0.1261309049509446  0.5000000000000000  0.4414714650248143   T   T   T
  0.3739870553355208  0.5000000000000000  0.4414830813990114   T   T   T
  0.1253884462254709 -0.0000000000000000  0.3128062867073594   T   T   T
  0.3746923621058774 -0.0000000000000000  0.3128086586251007   T   T   T
  0.9995256970296023  0.5000000000000000  0.3134547533315460   T   T   T
  0.2500174175515267  0.5000000000000000  0.3133292144879389   T   T   T
  0.0000000000000000  0.5000000000000000  0.1396099999999976   F   F   F
  0.2500000000000000  0.5000000000000000  0.1396099999999976   F   F   F
  0.0000000000000000  0.0000000000000000  0.0146099999999976   F   F   F
  0.2500000000000000  0.0000000000000000  0.0146099999999976   F   F   F
  0.1250000000000000  0.8084399999999974  0.1875000000000000   F   F   F
  0.3750000000000000  0.8084399999999974  0.1875000000000000   F   F   F
  0.1250000000000000  0.3084399999999974  0.0625000000000000   F   F   F
  0.3750000000000000  0.3084399999999974  0.0625000000000000   F   F   F
  0.0000000000000000  0.5000000000000000  0.2353900000000024   F   F   F
  0.2500000000000000  0.5000000000000000  0.2353900000000024   F   F   F
  0.0000000000000000  0.0000000000000000  0.1103900000000024   F   F   F
  0.2500000000000000  0.0000000000000000  0.1103900000000024   F   F   F
  0.1250000000000000  0.1915600000000026  0.1875000000000000   F   F   F
  0.3750000000000000  0.1915600000000026  0.1875000000000000   F   F   F
  0.1250000000000000  0.6915600000000026  0.0625000000000000   F   F   F
  0.3750000000000000  0.6915600000000026  0.0625000000000000   F   F   F
 -0.0044662565477940  0.5000000000000000  0.3901279183920345   T   T   T
  0.2500398345121301  0.5000000000000000  0.3917794337949518   T   T   T
  0.0001649882846691 -0.0000000000000000  0.2642406955299346   T   T   T
  0.2499961165070681 -0.0000000000000000  0.2644613010269126   T   T   T
  0.1113517374675287  0.7693998017000411  0.4408896489100725   T   T   T
  0.3888722359596021  0.7693384050419930  0.4406551701941915   T   T   T
  0.1248351611108446  0.3076471911758743  0.3126424205258899   T   T   T
  0.3752075522747098  0.3076247365095851  0.3126534341027065   T   T   T
 -0.0117896215091647  0.5000000000000000  0.4882856222150393   T   T   T
  0.2501315003426355  0.5000000000000000  0.4882198081721646   T   T   T
  0.0009225054876695 -0.0000000000000000  0.3578278415539641   T   T   T
  0.2500496773533391 -0.0000000000000000  0.3583636922624059   T   T   T
  0.1113517374675287  0.2306001982999588  0.4408896489100725   T   T   T
  0.3888722359596021  0.2306615949580001  0.4406551701941915   T   T   T
  0.1248351611108446  0.6923528088241253  0.3126424205258899   T   T   T
  0.3752075522747098  0.6923752634904152  0.3126534341027065   T   T   T
  0.6250000000000000  0.5000000000000000  0.1875000000000000   F   F   F
  0.8750000000000000  0.5000000000000000  0.1875000000000000   F   F   F
  0.6250000000000000  0.0000000000000000  0.0625000000000000   F   F   F
  0.8750000000000000  0.0000000000000000  0.0625000000000000   F   F   F
  0.5000000000000000  0.5000000000000000  0.0625000000000000   F   F   F
  0.7500000000000000  0.5000000000000000  0.0625000000000000   F   F   F
  0.5000000000000000  0.0000000000000000  0.1875000000000000   F   F   F
  0.7500000000000000  0.0000000000000000  0.1875000000000000   F   F   F
  0.6269927214212045  0.5000000000000000  0.4405992697308200   T   T   T
  0.8731099686281326  0.5000000000000000  0.4406340723770379   T   T   T
  0.6228105367523415 -0.0000000000000000  0.3122862390072076   T   T   T
  0.8772369768547665 -0.0000000000000000  0.3123114439418941   T   T   T
  0.5005656760551911  0.5000000000000000  0.3134490723486776   T   T   T
  0.7500455053703063  0.5000000000000000  0.3125261855237993   T   T   T
  0.7500799547578920 -0.0000000000000000  0.4414314799038468   T   T   T
  0.5000000000000000  0.5000000000000000  0.1396099999999976   F   F   F
  0.7500000000000000  0.5000000000000000  0.1396099999999976   F   F   F
  0.5000000000000000  0.0000000000000000  0.0146099999999976   F   F   F
  0.7500000000000000  0.0000000000000000  0.0146099999999976   F   F   F
  0.6250000000000000  0.8084399999999974  0.1875000000000000   F   F   F
  0.8750000000000000  0.8084399999999974  0.1875000000000000   F   F   F
  0.6250000000000000  0.3084399999999974  0.0625000000000000   F   F   F
  0.8750000000000000  0.3084399999999974  0.0625000000000000   F   F   F
  0.5000000000000000  0.5000000000000000  0.2353900000000024   F   F   F
  0.7500000000000000  0.5000000000000000  0.2353900000000024   F   F   F
  0.5000000000000000  0.0000000000000000  0.1103900000000024   F   F   F
  0.7500000000000000  0.0000000000000000  0.1103900000000024   F   F   F
  0.6250000000000000  0.1915600000000026  0.1875000000000000   F   F   F
  0.8750000000000000  0.1915600000000026  0.1875000000000000   F   F   F
  0.6250000000000000  0.6915600000000026  0.0625000000000000   F   F   F
  0.8750000000000000  0.6915600000000026  0.0625000000000000   F   F   F
  0.5047998321838890  0.5000000000000000  0.3900649744422218   T   T   T
  0.7499594173007679  0.5000000000000000  0.3882487732754153   T   T   T
  0.4998910019477789 -0.0000000000000000  0.2642649379164013   T   T   T
  0.7499619696215984 -0.0000000000000000  0.2646242316710934   T   T   T
  0.6389578080148638  0.7912706817895654  0.4350826386935462   T   T   T
  0.8611032271146907  0.7911928116169162  0.4350794602077670   T   T   T
  0.6248716934974095  0.3073552648076944  0.3115580357806320   T   T   T
  0.8752106367751316  0.3072953223989457  0.3116053944796785   T   T   T
  0.5117633131230447  0.5000000000000000  0.4882695118837988   T   T   T
  0.7499524494211647  0.5000000000000000  0.4876696601341786   T   T   T
  0.4992811273574230 -0.0000000000000000  0.3578169710350360   T   T   T
  0.7499986448941403 -0.0000000000000000  0.3598189250304291   T   T   T
  0.6389578080148638  0.2087293182104349  0.4350826386935462   T   T   T
  0.8611032271146907  0.2088071883830837  0.4350794602077670   T   T   T
  0.6248716934974095  0.6926447351923054  0.3115580357806320   T   T   T
  0.8752106367751316  0.6927046776010544  0.3116053944796785   T   T   T
  0.7502258040810083 -0.0000000000000000  0.5107531869121015   T   T   T
 
  0.00000000E+00  0.00000000E+00  0.00000000E+00
  0.00000000E+00  0.00000000E+00  0.00000000E+00
  0.00000000E+00  0.00000000E+00  0.00000000E+00
  0.00000000E+00  0.00000000E+00  0.00000000E+00
  0.00000000E+00  0.00000000E+00  0.00000000E+00
  0.00000000E+00  0.00000000E+00  0.00000000E+00
  0.00000000E+00  0.00000000E+00  0.00000000E+00
  0.00000000E+00  0.00000000E+00  0.00000000E+00
  0.00000000E+00  0.00000000E+00  0.00000000E+00
  0.00000000E+00  0.00000000E+00  0.00000000E+00
  0.00000000E+00  0.00000000E+00  0.00000000E+00
  0.00000000E+00  0.00000000E+00  0.00000000E+00
  0.00000000E+00  0.00000000E+00  0.00000000E+00
  0.00000000E+00  0.00000000E+00  0.00000000E+00
  0.00000000E+00  0.00000000E+00  0.00000000E+00
  0.00000000E+00  0.00000000E+00  0.00000000E+00
  0.00000000E+00  0.00000000E+00  0.00000000E+00
  0.00000000E+00  0.00000000E+00  0.00000000E+00
  0.00000000E+00  0.00000000E+00  0.00000000E+00
  0.00000000E+00  0.00000000E+00  0.00000000E+00
  0.00000000E+00  0.00000000E+00  0.00000000E+00
  0.00000000E+00  0.00000000E+00  0.00000000E+00
  0.00000000E+00  0.00000000E+00  0.00000000E+00
  0.00000000E+00  0.00000000E+00  0.00000000E+00
  0.00000000E+00  0.00000000E+00  0.00000000E+00
  0.00000000E+00  0.00000000E+00  0.00000000E+00
  0.00000000E+00  0.00000000E+00  0.00000000E+00
  0.00000000E+00  0.00000000E+00  0.00000000E+00
  0.00000000E+00  0.00000000E+00  0.00000000E+00
  0.00000000E+00  0.00000000E+00  0.00000000E+00
  0.00000000E+00  0.00000000E+00  0.00000000E+00
  0.00000000E+00  0.00000000E+00  0.00000000E+00
  0.00000000E+00  0.00000000E+00  0.00000000E+00
  0.00000000E+00  0.00000000E+00  0.00000000E+00
  0.00000000E+00  0.00000000E+00  0.00000000E+00
  0.00000000E+00  0.00000000E+00  0.00000000E+00
  0.00000000E+00  0.00000000E+00  0.00000000E+00
  0.00000000E+00  0.00000000E+00  0.00000000E+00
  0.00000000E+00  0.00000000E+00  0.00000000E+00
  0.00000000E+00  0.00000000E+00  0.00000000E+00
  0.00000000E+00  0.00000000E+00  0.00000000E+00
  0.00000000E+00  0.00000000E+00  0.00000000E+00
  0.00000000E+00  0.00000000E+00  0.00000000E+00
  0.00000000E+00  0.00000000E+00  0.00000000E+00
  0.00000000E+00  0.00000000E+00  0.00000000E+00
  0.00000000E+00  0.00000000E+00  0.00000000E+00
  0.00000000E+00  0.00000000E+00  0.00000000E+00
  0.00000000E+00  0.00000000E+00  0.00000000E+00
  0.00000000E+00  0.00000000E+00  0.00000000E+00
  0.00000000E+00  0.00000000E+00  0.00000000E+00
  0.00000000E+00  0.00000000E+00  0.00000000E+00
  0.00000000E+00  0.00000000E+00  0.00000000E+00
  0.00000000E+00  0.00000000E+00  0.00000000E+00
  0.00000000E+00  0.00000000E+00  0.00000000E+00
  0.00000000E+00  0.00000000E+00  0.00000000E+00
  0.00000000E+00  0.00000000E+00  0.00000000E+00
  0.00000000E+00  0.00000000E+00  0.00000000E+00
  0.00000000E+00  0.00000000E+00  0.00000000E+00
  0.00000000E+00  0.00000000E+00  0.00000000E+00
  0.00000000E+00  0.00000000E+00  0.00000000E+00
  0.00000000E+00  0.00000000E+00  0.00000000E+00
  0.00000000E+00  0.00000000E+00  0.00000000E+00
  0.00000000E+00  0.00000000E+00  0.00000000E+00
  0.00000000E+00  0.00000000E+00  0.00000000E+00
  0.00000000E+00  0.00000000E+00  0.00000000E+00
  0.00000000E+00  0.00000000E+00  0.00000000E+00
  0.00000000E+00  0.00000000E+00  0.00000000E+00
  0.00000000E+00  0.00000000E+00  0.00000000E+00
  0.00000000E+00  0.00000000E+00  0.00000000E+00
  0.00000000E+00  0.00000000E+00  0.00000000E+00
  0.00000000E+00  0.00000000E+00  0.00000000E+00
  0.00000000E+00  0.00000000E+00  0.00000000E+00
  0.00000000E+00  0.00000000E+00  0.00000000E+00
  0.00000000E+00  0.00000000E+00  0.00000000E+00
  0.00000000E+00  0.00000000E+00  0.00000000E+00
  0.00000000E+00  0.00000000E+00  0.00000000E+00
  0.00000000E+00  0.00000000E+00  0.00000000E+00
  0.00000000E+00  0.00000000E+00  0.00000000E+00
  0.00000000E+00  0.00000000E+00  0.00000000E+00
  0.00000000E+00  0.00000000E+00  0.00000000E+00
  0.00000000E+00  0.00000000E+00  0.00000000E+00
  0.00000000E+00  0.00000000E+00  0.00000000E+00
  0.00000000E+00  0.00000000E+00  0.00000000E+00
  0.00000000E+00  0.00000000E+00  0.00000000E+00
  0.00000000E+00  0.00000000E+00  0.00000000E+00
  0.00000000E+00  0.00000000E+00  0.00000000E+00
  0.00000000E+00  0.00000000E+00  0.00000000E+00
  0.00000000E+00  0.00000000E+00  0.00000000E+00
  0.00000000E+00  0.00000000E+00  0.00000000E+00
  0.00000000E+00  0.00000000E+00  0.00000000E+00
  0.00000000E+00  0.00000000E+00  0.00000000E+00
  0.00000000E+00  0.00000000E+00  0.00000000E+00
  0.00000000E+00  0.00000000E+00  0.00000000E+00
  0.00000000E+00  0.00000000E+00  0.00000000E+00
