Ir  O Ir  O Ir  O Ir  O                 
   1.00000000000000     
    12.8085319999999996    0.0000000000000000    0.0000000000000000
     0.0000000000000000   12.9404859999999999    0.0000000000000000
     0.0000000000000000    0.0000000000000000   25.8809719999999999
   Ir   O    Ir   O    Ir   O    Ir   O 
    16    32    16    32    16    32    16    32
Selective dynamics
Direct
  0.1250000000000000  0.2500000000000000  0.1875000000000000   F   F   F
  0.3750000000000000  0.2500000000000000  0.1875000000000000   F   F   F
  0.1250000000000000  0.0000000000000000  0.0625000000000000   F   F   F
  0.3750000000000000  0.0000000000000000  0.0625000000000000   F   F   F
  0.0000000000000000  0.2500000000000000  0.0625000000000000   F   F   F
  0.2500000000000000  0.2500000000000000  0.0625000000000000   F   F   F
  0.0000000000000000  0.0000000000000000  0.1875000000000000   F   F   F
  0.2500000000000000  0.0000000000000000  0.1875000000000000   F   F   F
  0.1249914127772948  0.2499995340160808  0.4392958559895969   T   T   T
  0.3750079350590160  0.2499999508099632  0.4392948632618662   T   T   T
  0.1249838256180886 -0.0000004449982848  0.3120001639149934   T   T   T
  0.3750153597569848 -0.0000000294845935  0.3120008804434909   T   T   T
  0.0000116291020765  0.2499951402870674  0.3131760988333241   T   T   T
  0.2499996503243817  0.2499924441332401  0.3131718821679558   T   T   T
 -0.0000002075419304  0.0000003616276666  0.4351419669247664   T   T   T
  0.2499993737112241  0.0000003551991032  0.4351794502665943   T   T   T
  0.0000000000000000  0.2500000000000000  0.1396099999999976   F   F   F
  0.2500000000000000  0.2500000000000000  0.1396099999999976   F   F   F
  0.0000000000000000  0.0000000000000000  0.0146099999999976   F   F   F
  0.2500000000000000  0.0000000000000000  0.0146099999999976   F   F   F
  0.1250000000000000  0.4042199999999951  0.1875000000000000   F   F   F
  0.3750000000000000  0.4042199999999951  0.1875000000000000   F   F   F
  0.1250000000000000  0.1542199999999951  0.0625000000000000   F   F   F
  0.3750000000000000  0.1542199999999951  0.0625000000000000   F   F   F
  0.0000000000000000  0.2500000000000000  0.2353900000000024   F   F   F
  0.2500000000000000  0.2500000000000000  0.2353900000000024   F   F   F
  0.0000000000000000  0.0000000000000000  0.1103900000000024   F   F   F
  0.2500000000000000  0.0000000000000000  0.1103900000000024   F   F   F
  0.1250000000000000  0.0957799999999978  0.1875000000000000   F   F   F
  0.3750000000000000  0.0957799999999978  0.1875000000000000   F   F   F
  0.1250000000000000  0.3457799999999978  0.0625000000000000   F   F   F
  0.3750000000000000  0.3457799999999978  0.0625000000000000   F   F   F
  0.0000000106535788  0.2500002817281560  0.3902402527306791   T   T   T
  0.2499991689468239  0.2500029460112297  0.3903016905711577   T   T   T
 -0.0000008391410337  0.0000007085468931  0.2642286234903932   T   T   T
  0.2499997125618187  0.0000001130840942  0.2642140641388033   T   T   T
  0.1250881850261382  0.4049512822950198  0.4406214365077895   T   T   T
  0.3749116552446675  0.4049513628795121  0.4406205120668805   T   T   T
  0.1248460998676005  0.1542795442419030  0.3129327297988488   T   T   T
  0.3751542659081768  0.1542788335694668  0.3129324911157764   T   T   T
 -0.0000009305163464  0.2499988168882365  0.4851080234966929   T   T   T
  0.2499997205492138  0.2499975465539754  0.4852179188468150   T   T   T
 -0.0000049809877000  0.0000006433797982  0.3594294857840738   T   T   T
  0.2499993784238330 -0.0000008375862628  0.3595287779490927   T   T   T
  0.1250869051405726  0.0950496966873134  0.4406229506551929   T   T   T
  0.3749120080574925  0.0950487487728608  0.4406253780316066   T   T   T
  0.1248364896687708  0.3457142936787557  0.3129153018737522   T   T   T
  0.3751646731738680  0.3457139852785311  0.3129146912370923   T   T   T
  0.6250000000000000  0.2500000000000000  0.1875000000000000   F   F   F
  0.8750000000000000  0.2500000000000000  0.1875000000000000   F   F   F
  0.6250000000000000  0.0000000000000000  0.0625000000000000   F   F   F
  0.8750000000000000  0.0000000000000000  0.0625000000000000   F   F   F
  0.5000000000000000  0.2500000000000000  0.0625000000000000   F   F   F
  0.7500000000000000  0.2500000000000000  0.0625000000000000   F   F   F
  0.5000000000000000  0.0000000000000000  0.1875000000000000   F   F   F
  0.7500000000000000  0.0000000000000000  0.1875000000000000   F   F   F
  0.6249911241615124  0.2499993870613939  0.4392944593159683   T   T   T
  0.8750093408248977  0.2499995614730247  0.4392955527688107   T   T   T
  0.6249822376876951 -0.0000080259046068  0.3119997064566069   T   T   T
  0.8750219272945023 -0.0000005470018500  0.3119980778507101   T   T   T
  0.4999969652055543  0.2499872234819242  0.3131763365586073   T   T   T
  0.7500033411286363  0.2499977761796691  0.3131699149694467   T   T   T
  0.4999999278635376  0.0000004912256785  0.4351431039251127   T   T   T
  0.7500002180729354  0.0000000759001919  0.4351776782940000   T   T   T
  0.5000000000000000  0.2500000000000000  0.1396099999999976   F   F   F
  0.7500000000000000  0.2500000000000000  0.1396099999999976   F   F   F
  0.5000000000000000  0.0000000000000000  0.0146099999999976   F   F   F
  0.7500000000000000  0.0000000000000000  0.0146099999999976   F   F   F
  0.6250000000000000  0.4042199999999951  0.1875000000000000   F   F   F
  0.8750000000000000  0.4042199999999951  0.1875000000000000   F   F   F
  0.6250000000000000  0.1542199999999951  0.0625000000000000   F   F   F
  0.8750000000000000  0.1542199999999951  0.0625000000000000   F   F   F
  0.5000000000000000  0.2500000000000000  0.2353900000000024   F   F   F
  0.7500000000000000  0.2500000000000000  0.2353900000000024   F   F   F
  0.5000000000000000  0.0000000000000000  0.1103900000000024   F   F   F
  0.7500000000000000  0.0000000000000000  0.1103900000000024   F   F   F
  0.6250000000000000  0.0957799999999978  0.1875000000000000   F   F   F
  0.8750000000000000  0.0957799999999978  0.1875000000000000   F   F   F
  0.6250000000000000  0.3457799999999978  0.0625000000000000   F   F   F
  0.8750000000000000  0.3457799999999978  0.0625000000000000   F   F   F
  0.4999994539059640  0.2500013642414474  0.3902402989588282   T   T   T
  0.7500014922485144  0.2500000723204485  0.3902995316738646   T   T   T
  0.5000007920122396  0.0000021124349320  0.2642298599284108   T   T   T
  0.7499998564754662  0.0000022424352809  0.2642125353688991   T   T   T
  0.6250881708619264  0.4049548889640688  0.4406254249453876   T   T   T
  0.8749111709766566  0.4049547425176156  0.4406266670605485   T   T   T
  0.6248491536446746  0.1542790755308075  0.3129319574377687   T   T   T
  0.8751630371595910  0.1542901997593110  0.3129150225095750   T   T   T
  0.5000005017821750  0.2499979925948295  0.4851060300458948   T   T   T
  0.7499998948148666  0.2499993608672842  0.4852162121136300   T   T   T
  0.5000041705626028  0.0000002762079028  0.3594298500398101   T   T   T
  0.7500008639272888  0.0000019591718707  0.3595264364937148   T   T   T
  0.6250893499176473  0.0950472068255275  0.4406238145514113   T   T   T
  0.8749109686432908  0.0950483439960165  0.4406215179842630   T   T   T
  0.6248361123043722  0.3457134678795500  0.3129143454560239   T   T   T
  0.8751620267666599  0.3457175258757137  0.3129143502905978   T   T   T
  0.1250000000000000  0.7500000000000000  0.1875000000000000   F   F   F
  0.3750000000000000  0.7500000000000000  0.1875000000000000   F   F   F
  0.1250000000000000  0.5000000000000000  0.0625000000000000   F   F   F
  0.3750000000000000  0.5000000000000000  0.0625000000000000   F   F   F
  0.0000000000000000  0.7500000000000000  0.0625000000000000   F   F   F
  0.2500000000000000  0.7500000000000000  0.0625000000000000   F   F   F
  0.0000000000000000  0.5000000000000000  0.1875000000000000   F   F   F
  0.2500000000000000  0.5000000000000000  0.1875000000000000   F   F   F
  0.1249935976952987  0.7500007950012992  0.4392959672062739   T   T   T
  0.3750055826979869  0.7500005768689459  0.4392953589174305   T   T   T
  0.1249791430814177  0.5000006475981721  0.3119973980845173   T   T   T
  0.3750218051111999  0.5000011094890419  0.3119968261315927   T   T   T
  0.0000087661253953  0.7500049877256394  0.3131747244063122   T   T   T
  0.2499993687919075  0.7500076434537026  0.3131712074543663   T   T   T
  0.0000011182324908  0.4999998959071453  0.4351430727640824   T   T   T
  0.2499999949152528  0.4999998940726809  0.4351772356899932   T   T   T
  0.0000000000000000  0.7500000000000000  0.1396099999999976   F   F   F
  0.2500000000000000  0.7500000000000000  0.1396099999999976   F   F   F
  0.0000000000000000  0.5000000000000000  0.0146099999999976   F   F   F
  0.2500000000000000  0.5000000000000000  0.0146099999999976   F   F   F
  0.1250000000000000  0.9042199999999951  0.1875000000000000   F   F   F
  0.3750000000000000  0.9042199999999951  0.1875000000000000   F   F   F
  0.1250000000000000  0.6542199999999951  0.0625000000000000   F   F   F
  0.3750000000000000  0.6542199999999951  0.0625000000000000   F   F   F
  0.0000000000000000  0.7500000000000000  0.2353900000000024   F   F   F
  0.2500000000000000  0.7500000000000000  0.2353900000000024   F   F   F
  0.0000000000000000  0.5000000000000000  0.1103900000000024   F   F   F
  0.2500000000000000  0.5000000000000000  0.1103900000000024   F   F   F
  0.1250000000000000  0.5957799999999978  0.1875000000000000   F   F   F
  0.3750000000000000  0.5957799999999978  0.1875000000000000   F   F   F
  0.1250000000000000  0.8457799999999978  0.0625000000000000   F   F   F
  0.3750000000000000  0.8457799999999978  0.0625000000000000   F   F   F
  0.0000011197985555  0.7500002206383342  0.3902419094743740   T   T   T
  0.2499993977629309  0.7499975585701072  0.3903016748750657   T   T   T
 -0.0000012651458656  0.4999997164821901  0.2642295899224260   T   T   T
  0.2499999720322727  0.5000002967998292  0.2642120818383443   T   T   T
  0.1250870706423009  0.9049509968236429  0.4406237321546086   T   T   T
  0.3749118207386580  0.9049515391359536  0.4406258804245308   T   T   T
  0.1248355854345501  0.6542879759348420  0.3129158854664053   T   T   T
  0.3751645835741735  0.6542889981654395  0.3129152197979365   T   T   T
  0.0000009914820600  0.7500013292364966  0.4851098732164258   T   T   T
  0.2499997086259450  0.7500026030505640  0.4852197407868615   T   T   T
 -0.0000011217086187  0.4999995007988511  0.3594286656345259   T   T   T
  0.2500013432925871  0.5000009927169454  0.3595262112203250   T   T   T
  0.1250883556596808  0.5950487049205050  0.4406213168510919   T   T   T
  0.3749115156480082  0.5950490830039440  0.4406201311649861   T   T   T
  0.1248450823782695  0.8457190406494615  0.3129324244959643   T   T   T
  0.3751540242044742  0.8457204156096056  0.3129318451898919   T   T   T
  0.6250000000000000  0.7500000000000000  0.1875000000000000   F   F   F
  0.8750000000000000  0.7500000000000000  0.1875000000000000   F   F   F
  0.6250000000000000  0.5000000000000000  0.0625000000000000   F   F   F
  0.8750000000000000  0.5000000000000000  0.0625000000000000   F   F   F
  0.5000000000000000  0.7500000000000000  0.0625000000000000   F   F   F
  0.7500000000000000  0.7500000000000000  0.0625000000000000   F   F   F
  0.5000000000000000  0.5000000000000000  0.1875000000000000   F   F   F
  0.7500000000000000  0.5000000000000000  0.1875000000000000   F   F   F
  0.6249923430174087  0.7500007056527324  0.4392939257731761   T   T   T
  0.8750078282780975  0.7500009281270447  0.4392950091806124   T   T   T
  0.6249760867394371  0.5000010598961768  0.3119989052156635   T   T   T
  0.8750238019335357  0.5000008179388568  0.3119994915793911   T   T   T
  0.4999918820653752  0.7500056435011279  0.3131750691948166   T   T   T
  0.7500001848265972  0.7499985970173174  0.3131681347471079   T   T   T
  0.4999985166162622  0.4999998822843890  0.4351417528933788   T   T   T
  0.7499996552733479  0.5000003165660134  0.4351802005764300   T   T   T
  0.5000000000000000  0.7500000000000000  0.1396099999999976   F   F   F
  0.7500000000000000  0.7500000000000000  0.1396099999999976   F   F   F
  0.5000000000000000  0.5000000000000000  0.0146099999999976   F   F   F
  0.7500000000000000  0.5000000000000000  0.0146099999999976   F   F   F
  0.6250000000000000  0.9042199999999951  0.1875000000000000   F   F   F
  0.8750000000000000  0.9042199999999951  0.1875000000000000   F   F   F
  0.6250000000000000  0.6542199999999951  0.0625000000000000   F   F   F
  0.8750000000000000  0.6542199999999951  0.0625000000000000   F   F   F
  0.5000000000000000  0.7500000000000000  0.2353900000000024   F   F   F
  0.7500000000000000  0.7500000000000000  0.2353900000000024   F   F   F
  0.5000000000000000  0.5000000000000000  0.1103900000000024   F   F   F
  0.7500000000000000  0.5000000000000000  0.1103900000000024   F   F   F
  0.6250000000000000  0.5957799999999978  0.1875000000000000   F   F   F
  0.8750000000000000  0.5957799999999978  0.1875000000000000   F   F   F
  0.6250000000000000  0.8457799999999978  0.0625000000000000   F   F   F
  0.8750000000000000  0.8457799999999978  0.0625000000000000   F   F   F
  0.4999981696709163  0.7499996133590863  0.3902396901103321   T   T   T
  0.7500005499111261  0.7500008733953812  0.3902993802696851   T   T   T
  0.5000007651403797  0.4999985960794283  0.2642285007846308   T   T   T
  0.7499997275954104  0.4999978280586356  0.2642145302169896   T   T   T
  0.6250886064195439  0.9049530374494505  0.4406243519728764   T   T   T
  0.8749117191010892  0.9049521338967583  0.4406230421021782   T   T   T
  0.6248365282101016  0.6542863175124041  0.3129151719553830   T   T   T
  0.8751617847880132  0.6542853818025680  0.3129157382987724   T   T   T
  0.4999987820545124  0.7500021806407757  0.4851088877809197   T   T   T
  0.7499997681174502  0.7500008175389632  0.4852173520468049   T   T   T
  0.5000005088313337  0.4999993947739926  0.3594278521268368   T   T   T
  0.7499983486469675  0.4999970419060241  0.3595260721441364   T   T   T
  0.6250874264031867  0.5950454869558154  0.4406252386694107   T   T   T
  0.8749119096930293  0.5950454958981788  0.4406272553832990   T   T   T
  0.6248368610887911  0.8457097534425705  0.3129145084545102   T   T   T
  0.8751618147163641  0.8457091218930356  0.3129152183025298   T   T   T
 
  0.00000000E+00  0.00000000E+00  0.00000000E+00
  0.00000000E+00  0.00000000E+00  0.00000000E+00
  0.00000000E+00  0.00000000E+00  0.00000000E+00
  0.00000000E+00  0.00000000E+00  0.00000000E+00
  0.00000000E+00  0.00000000E+00  0.00000000E+00
  0.00000000E+00  0.00000000E+00  0.00000000E+00
  0.00000000E+00  0.00000000E+00  0.00000000E+00
  0.00000000E+00  0.00000000E+00  0.00000000E+00
  0.00000000E+00  0.00000000E+00  0.00000000E+00
  0.00000000E+00  0.00000000E+00  0.00000000E+00
  0.00000000E+00  0.00000000E+00  0.00000000E+00
  0.00000000E+00  0.00000000E+00  0.00000000E+00
  0.00000000E+00  0.00000000E+00  0.00000000E+00
  0.00000000E+00  0.00000000E+00  0.00000000E+00
  0.00000000E+00  0.00000000E+00  0.00000000E+00
  0.00000000E+00  0.00000000E+00  0.00000000E+00
  0.00000000E+00  0.00000000E+00  0.00000000E+00
  0.00000000E+00  0.00000000E+00  0.00000000E+00
  0.00000000E+00  0.00000000E+00  0.00000000E+00
  0.00000000E+00  0.00000000E+00  0.00000000E+00
  0.00000000E+00  0.00000000E+00  0.00000000E+00
  0.00000000E+00  0.00000000E+00  0.00000000E+00
  0.00000000E+00  0.00000000E+00  0.00000000E+00
  0.00000000E+00  0.00000000E+00  0.00000000E+00
  0.00000000E+00  0.00000000E+00  0.00000000E+00
  0.00000000E+00  0.00000000E+00  0.00000000E+00
  0.00000000E+00  0.00000000E+00  0.00000000E+00
  0.00000000E+00  0.00000000E+00  0.00000000E+00
  0.00000000E+00  0.00000000E+00  0.00000000E+00
  0.00000000E+00  0.00000000E+00  0.00000000E+00
  0.00000000E+00  0.00000000E+00  0.00000000E+00
  0.00000000E+00  0.00000000E+00  0.00000000E+00
  0.00000000E+00  0.00000000E+00  0.00000000E+00
  0.00000000E+00  0.00000000E+00  0.00000000E+00
  0.00000000E+00  0.00000000E+00  0.00000000E+00
  0.00000000E+00  0.00000000E+00  0.00000000E+00
  0.00000000E+00  0.00000000E+00  0.00000000E+00
  0.00000000E+00  0.00000000E+00  0.00000000E+00
  0.00000000E+00  0.00000000E+00  0.00000000E+00
  0.00000000E+00  0.00000000E+00  0.00000000E+00
  0.00000000E+00  0.00000000E+00  0.00000000E+00
  0.00000000E+00  0.00000000E+00  0.00000000E+00
  0.00000000E+00  0.00000000E+00  0.00000000E+00
  0.00000000E+00  0.00000000E+00  0.00000000E+00
  0.00000000E+00  0.00000000E+00  0.00000000E+00
  0.00000000E+00  0.00000000E+00  0.00000000E+00
  0.00000000E+00  0.00000000E+00  0.00000000E+00
  0.00000000E+00  0.00000000E+00  0.00000000E+00
  0.00000000E+00  0.00000000E+00  0.00000000E+00
  0.00000000E+00  0.00000000E+00  0.00000000E+00
  0.00000000E+00  0.00000000E+00  0.00000000E+00
  0.00000000E+00  0.00000000E+00  0.00000000E+00
  0.00000000E+00  0.00000000E+00  0.00000000E+00
  0.00000000E+00  0.00000000E+00  0.00000000E+00
  0.00000000E+00  0.00000000E+00  0.00000000E+00
  0.00000000E+00  0.00000000E+00  0.00000000E+00
  0.00000000E+00  0.00000000E+00  0.00000000E+00
  0.00000000E+00  0.00000000E+00  0.00000000E+00
  0.00000000E+00  0.00000000E+00  0.00000000E+00
  0.00000000E+00  0.00000000E+00  0.00000000E+00
  0.00000000E+00  0.00000000E+00  0.00000000E+00
  0.00000000E+00  0.00000000E+00  0.00000000E+00
  0.00000000E+00  0.00000000E+00  0.00000000E+00
  0.00000000E+00  0.00000000E+00  0.00000000E+00
  0.00000000E+00  0.00000000E+00  0.00000000E+00
  0.00000000E+00  0.00000000E+00  0.00000000E+00
  0.00000000E+00  0.00000000E+00  0.00000000E+00
  0.00000000E+00  0.00000000E+00  0.00000000E+00
  0.00000000E+00  0.00000000E+00  0.00000000E+00
  0.00000000E+00  0.00000000E+00  0.00000000E+00
  0.00000000E+00  0.00000000E+00  0.00000000E+00
  0.00000000E+00  0.00000000E+00  0.00000000E+00
  0.00000000E+00  0.00000000E+00  0.00000000E+00
  0.00000000E+00  0.00000000E+00  0.00000000E+00
  0.00000000E+00  0.00000000E+00  0.00000000E+00
  0.00000000E+00  0.00000000E+00  0.00000000E+00
  0.00000000E+00  0.00000000E+00  0.00000000E+00
  0.00000000E+00  0.00000000E+00  0.00000000E+00
  0.00000000E+00  0.00000000E+00  0.00000000E+00
  0.00000000E+00  0.00000000E+00  0.00000000E+00
  0.00000000E+00  0.00000000E+00  0.00000000E+00
  0.00000000E+00  0.00000000E+00  0.00000000E+00
  0.00000000E+00  0.00000000E+00  0.00000000E+00
  0.00000000E+00  0.00000000E+00  0.00000000E+00
  0.00000000E+00  0.00000000E+00  0.00000000E+00
  0.00000000E+00  0.00000000E+00  0.00000000E+00
  0.00000000E+00  0.00000000E+00  0.00000000E+00
  0.00000000E+00  0.00000000E+00  0.00000000E+00
  0.00000000E+00  0.00000000E+00  0.00000000E+00
  0.00000000E+00  0.00000000E+00  0.00000000E+00
  0.00000000E+00  0.00000000E+00  0.00000000E+00
  0.00000000E+00  0.00000000E+00  0.00000000E+00
  0.00000000E+00  0.00000000E+00  0.00000000E+00
  0.00000000E+00  0.00000000E+00  0.00000000E+00
  0.00000000E+00  0.00000000E+00  0.00000000E+00
  0.00000000E+00  0.00000000E+00  0.00000000E+00
  0.00000000E+00  0.00000000E+00  0.00000000E+00
  0.00000000E+00  0.00000000E+00  0.00000000E+00
  0.00000000E+00  0.00000000E+00  0.00000000E+00
  0.00000000E+00  0.00000000E+00  0.00000000E+00
  0.00000000E+00  0.00000000E+00  0.00000000E+00
  0.00000000E+00  0.00000000E+00  0.00000000E+00
  0.00000000E+00  0.00000000E+00  0.00000000E+00
  0.00000000E+00  0.00000000E+00  0.00000000E+00
  0.00000000E+00  0.00000000E+00  0.00000000E+00
  0.00000000E+00  0.00000000E+00  0.00000000E+00
  0.00000000E+00  0.00000000E+00  0.00000000E+00
  0.00000000E+00  0.00000000E+00  0.00000000E+00
  0.00000000E+00  0.00000000E+00  0.00000000E+00
  0.00000000E+00  0.00000000E+00  0.00000000E+00
  0.00000000E+00  0.00000000E+00  0.00000000E+00
  0.00000000E+00  0.00000000E+00  0.00000000E+00
  0.00000000E+00  0.00000000E+00  0.00000000E+00
  0.00000000E+00  0.00000000E+00  0.00000000E+00
  0.00000000E+00  0.00000000E+00  0.00000000E+00
  0.00000000E+00  0.00000000E+00  0.00000000E+00
  0.00000000E+00  0.00000000E+00  0.00000000E+00
  0.00000000E+00  0.00000000E+00  0.00000000E+00
  0.00000000E+00  0.00000000E+00  0.00000000E+00
  0.00000000E+00  0.00000000E+00  0.00000000E+00
  0.00000000E+00  0.00000000E+00  0.00000000E+00
  0.00000000E+00  0.00000000E+00  0.00000000E+00
  0.00000000E+00  0.00000000E+00  0.00000000E+00
  0.00000000E+00  0.00000000E+00  0.00000000E+00
  0.00000000E+00  0.00000000E+00  0.00000000E+00
  0.00000000E+00  0.00000000E+00  0.00000000E+00
  0.00000000E+00  0.00000000E+00  0.00000000E+00
  0.00000000E+00  0.00000000E+00  0.00000000E+00
  0.00000000E+00  0.00000000E+00  0.00000000E+00
  0.00000000E+00  0.00000000E+00  0.00000000E+00
  0.00000000E+00  0.00000000E+00  0.00000000E+00
  0.00000000E+00  0.00000000E+00  0.00000000E+00
  0.00000000E+00  0.00000000E+00  0.00000000E+00
  0.00000000E+00  0.00000000E+00  0.00000000E+00
  0.00000000E+00  0.00000000E+00  0.00000000E+00
  0.00000000E+00  0.00000000E+00  0.00000000E+00
  0.00000000E+00  0.00000000E+00  0.00000000E+00
  0.00000000E+00  0.00000000E+00  0.00000000E+00
  0.00000000E+00  0.00000000E+00  0.00000000E+00
  0.00000000E+00  0.00000000E+00  0.00000000E+00
  0.00000000E+00  0.00000000E+00  0.00000000E+00
  0.00000000E+00  0.00000000E+00  0.00000000E+00
  0.00000000E+00  0.00000000E+00  0.00000000E+00
  0.00000000E+00  0.00000000E+00  0.00000000E+00
  0.00000000E+00  0.00000000E+00  0.00000000E+00
  0.00000000E+00  0.00000000E+00  0.00000000E+00
  0.00000000E+00  0.00000000E+00  0.00000000E+00
  0.00000000E+00  0.00000000E+00  0.00000000E+00
  0.00000000E+00  0.00000000E+00  0.00000000E+00
  0.00000000E+00  0.00000000E+00  0.00000000E+00
  0.00000000E+00  0.00000000E+00  0.00000000E+00
  0.00000000E+00  0.00000000E+00  0.00000000E+00
  0.00000000E+00  0.00000000E+00  0.00000000E+00
  0.00000000E+00  0.00000000E+00  0.00000000E+00
  0.00000000E+00  0.00000000E+00  0.00000000E+00
  0.00000000E+00  0.00000000E+00  0.00000000E+00
  0.00000000E+00  0.00000000E+00  0.00000000E+00
  0.00000000E+00  0.00000000E+00  0.00000000E+00
  0.00000000E+00  0.00000000E+00  0.00000000E+00
  0.00000000E+00  0.00000000E+00  0.00000000E+00
  0.00000000E+00  0.00000000E+00  0.00000000E+00
  0.00000000E+00  0.00000000E+00  0.00000000E+00
  0.00000000E+00  0.00000000E+00  0.00000000E+00
  0.00000000E+00  0.00000000E+00  0.00000000E+00
  0.00000000E+00  0.00000000E+00  0.00000000E+00
  0.00000000E+00  0.00000000E+00  0.00000000E+00
  0.00000000E+00  0.00000000E+00  0.00000000E+00
  0.00000000E+00  0.00000000E+00  0.00000000E+00
  0.00000000E+00  0.00000000E+00  0.00000000E+00
  0.00000000E+00  0.00000000E+00  0.00000000E+00
  0.00000000E+00  0.00000000E+00  0.00000000E+00
  0.00000000E+00  0.00000000E+00  0.00000000E+00
  0.00000000E+00  0.00000000E+00  0.00000000E+00
  0.00000000E+00  0.00000000E+00  0.00000000E+00
  0.00000000E+00  0.00000000E+00  0.00000000E+00
  0.00000000E+00  0.00000000E+00  0.00000000E+00
  0.00000000E+00  0.00000000E+00  0.00000000E+00
  0.00000000E+00  0.00000000E+00  0.00000000E+00
  0.00000000E+00  0.00000000E+00  0.00000000E+00
  0.00000000E+00  0.00000000E+00  0.00000000E+00
  0.00000000E+00  0.00000000E+00  0.00000000E+00
  0.00000000E+00  0.00000000E+00  0.00000000E+00
  0.00000000E+00  0.00000000E+00  0.00000000E+00
  0.00000000E+00  0.00000000E+00  0.00000000E+00
  0.00000000E+00  0.00000000E+00  0.00000000E+00
  0.00000000E+00  0.00000000E+00  0.00000000E+00
  0.00000000E+00  0.00000000E+00  0.00000000E+00
  0.00000000E+00  0.00000000E+00  0.00000000E+00
  0.00000000E+00  0.00000000E+00  0.00000000E+00
  0.00000000E+00  0.00000000E+00  0.00000000E+00
  0.00000000E+00  0.00000000E+00  0.00000000E+00
  0.00000000E+00  0.00000000E+00  0.00000000E+00
