Ir  O Ir  O 
 1.0000000000000000
    12.8085319999999996    0.0000000000000000    0.0000000000000000
     0.0000000000000000    6.4702430000000000    0.0000000000000000
     0.0000000000000000    0.0000000000000000   25.8809719999999999
  16  34  16  34
Selective dynamics
Cartesian
  1.6010664999999999  3.2351215000000000  4.8526822500000000   F   F   F
  4.8031994999999998  3.2351215000000000  4.8526822500000000   F   F   F
  1.6010664999999999  0.0000000000000000  1.6175607500000000   F   F   F
  4.8031994999999998  0.0000000000000000  1.6175607500000000   F   F   F
  0.0000000000000000  3.2351215000000000  1.6175607500000000   F   F   F
  3.2021329999999999  3.2351215000000000  1.6175607500000000   F   F   F
  0.0000000000000000  0.0000000000000000  4.8526822500000000   F   F   F
  3.2021329999999999  0.0000000000000000  4.8526822500000000   F   F   F
  1.5986761364276527  3.2507984749318513 11.3344640982506792   T   T   T
  4.7996478173307224  3.2490747565133655 11.3520475998691541   T   T   T
  1.5989480151140847  0.0015370994652858  8.1065720969969224   T   T   T
  4.7839028602109073  0.0032111061320791  8.0889480813293613   T   T   T
  0.0017452832480791  3.2370238363541639  8.0987430507448224   T   T   T
  3.2000467435474520  3.2382324698452227  8.0993977061215130   T   T   T
 -0.0116475353565892  0.0165654928414554 11.4494972379183011   T   T   T
  3.2061918225558261  0.0146863018613658 11.4485371566659531   T   T   T
  0.0000000000000000  3.2351215000000000  3.6132425009199376   F   F   F
  3.2021329999999999  3.2351215000000000  3.6132425009199376   F   F   F
  0.0000000000000000  0.0000000000000000  0.3781210009199379   F   F   F
  3.2021329999999999  0.0000000000000000  0.3781210009199379   F   F   F
  1.6010664999999999  5.2308032509199833  4.8526822500000000   F   F   F
  4.8031994999999998  5.2308032509199833  4.8526822500000000   F   F   F
  1.6010664999999999  1.9956817509199831  1.6175607500000000   F   F   F
  4.8031994999999998  1.9956817509199831  1.6175607500000000   F   F   F
  0.0000000000000000  3.2351215000000000  6.0921219990800619   F   F   F
  3.2021329999999999  3.2351215000000000  6.0921219990800619   F   F   F
  0.0000000000000000  0.0000000000000000  2.8570004990800624   F   F   F
  3.2021329999999999  0.0000000000000000  2.8570004990800624   F   F   F
  1.6010664999999999  1.2394397490800166  4.8526822500000000   F   F   F
  4.8031994999999998  1.2394397490800166  4.8526822500000000   F   F   F
  1.6010664999999999  4.4745612490800166  1.6175607500000000   F   F   F
  4.8031994999999998  4.4745612490800166  1.6175607500000000   F   F   F
 -0.0010292638270611  3.2488452970500221 10.0834901122838296   T   T   T
  3.2039588986502050  3.2462633074868150 10.0847720958853078   T   T   T
  0.0056368784609867  0.0008842643814488  6.8543246697520370   T   T   T
  3.1937491967903364  0.0026800904714617  6.8514912495073181   T   T   T
  1.5960234244922202  5.2508628586207209 11.3030042046266779   T   T   T
  4.8241756059905283  5.2463360105550416 11.3786021571418026   T   T   T
  1.5980973560954919  1.9922894840254179  8.0985542401822759   T   T   T
  4.7987429833894009  1.9960198429897491  8.0910725637480478   T   T   T
  0.0045806011374195  3.2503181443798299 12.5178492687415712   T   T   T
  3.1916105182063403  3.2482695116921758 12.5203741089367799   T   T   T
 -0.0072781416875640 -0.0025492347304397  9.3513064874943002   T   T   T
  3.2069509574150676 -0.0000053626357721  9.3555663103903672   T   T   T
  1.5968754715649525  1.2503774628725042 11.2806126939174955   T   T   T
  4.8229644665585294  1.2527492809664904 11.3689788208473885   T   T   T
  1.5989656774631451  4.4821338210824928  8.0934752367377332   T   T   T
  4.7989918060998287  4.4808942272582755  8.0844420513657695   T   T   T
  3.1700258510887185  0.0266176651240453 13.2453342899357871   T   T   T
  0.0335025507260173  0.0402876793771920 13.2447091888274713   T   T   T
  8.0053324999999997  3.2351215000000000  4.8526822500000000   F   F   F
 11.2074654999999996  3.2351215000000000  4.8526822500000000   F   F   F
  8.0053324999999997  0.0000000000000000  1.6175607500000000   F   F   F
 11.2074654999999996  0.0000000000000000  1.6175607500000000   F   F   F
  6.4042659999999998  3.2351215000000000  1.6175607500000000   F   F   F
  9.6063989999999997  3.2351215000000000  1.6175607500000000   F   F   F
  6.4042659999999998  0.0000000000000000  4.8526822500000000   F   F   F
  9.6063989999999997  0.0000000000000000  4.8526822500000000   F   F   F
  8.0008075127798381  3.2529646960358454 11.3295234714956425   T   T   T
 11.2072118712461712  3.2542838310747193 11.3517302563185005   T   T   T
  8.0148740369359661  0.0027399321370702  8.0884268810179751   T   T   T
 11.2182773336925337 -0.0001678961605950  8.0912293547415892   T   T   T
  6.4014857662398024  3.2384487994399409  8.0971524142158291   T   T   T
  9.6102591723863977  3.2380201195533242  8.0980708445624288   T   T   T
  6.4254452328963252  0.0170290517437071 11.2784240999270526   T   T   T
  9.5731169815093011  0.0204426785194599 11.3462763747365702   T   T   T
  6.4042659999999998  3.2351215000000000  3.6132425009199376   F   F   F
  9.6063989999999997  3.2351215000000000  3.6132425009199376   F   F   F
  6.4042659999999998  0.0000000000000000  0.3781210009199379   F   F   F
  9.6063989999999997  0.0000000000000000  0.3781210009199379   F   F   F
  8.0053324999999997  5.2308032509199833  4.8526822500000000   F   F   F
 11.2074654999999996  5.2308032509199833  4.8526822500000000   F   F   F
  8.0053324999999997  1.9956817509199831  1.6175607500000000   F   F   F
 11.2074654999999996  1.9956817509199831  1.6175607500000000   F   F   F
  6.4042659999999998  3.2351215000000000  6.0921219990800619   F   F   F
  9.6063989999999997  3.2351215000000000  6.0921219990800619   F   F   F
  6.4042659999999998  0.0000000000000000  2.8570004990800624   F   F   F
  9.6063989999999997  0.0000000000000000  2.8570004990800624   F   F   F
  8.0053324999999997  1.2394397490800166  4.8526822500000000   F   F   F
 11.2074654999999996  1.2394397490800166  4.8526822500000000   F   F   F
  8.0053324999999997  4.4745612490800166  1.6175607500000000   F   F   F
 11.2074654999999996  4.4745612490800166  1.6175607500000000   F   F   F
  6.3923638905705529  3.2437848956891200 10.0819391828979050   T   T   T
  9.6157299131839942  3.2528802241258234 10.0843360648041429   T   T   T
  6.4030064809452076  0.0030389526818586  6.8509794206835224   T   T   T
  9.6078367476128061  0.0032130088612524  6.8481008805144388   T   T   T
  7.9936404544302153  5.2354145510025241 11.2742793380871085   T   T   T
 11.1893599684971203  5.2478927640584390 11.3774028236161708   T   T   T
  8.0055838400436059  1.9973339072495297  8.0955965193236441   T   T   T
 11.2131967992699337  1.9926752730643065  8.0878358337956815   T   T   T
  6.4085243749556229  3.2491110539015460 12.5257756050436164   T   T   T
  9.5955914460204710  3.2334172392744165 12.5232567506299866   T   T   T
  6.3866070043869385 -0.0062897540003620  9.3060974568366781   T   T   T
  9.6272521073080490 -0.0048049477313948  9.3197421809154122   T   T   T
  7.9858792164423908  1.2728975076451192 11.2655286719943906   T   T   T
 11.1924971826384176  1.2584076936391815 11.3458498712537423   T   T   T
  8.0048338358127591  4.4790710378712228  8.0870962004852931   T   T   T
 11.2137189190277216  4.4793897874054904  8.0822599218879621   T   T   T
  9.2827539929969269  0.2869367952538291 13.2248030183284904   T   T   T
  8.8962866968777821 -0.7152087941955555 13.9758017509620966   T   T   T
