Ir  O Ir  O 
 1.0000000000000000
    12.8085319999999996    0.0000000000000000    0.0000000000000000
     0.0000000000000000    6.4702430000000000    0.0000000000000000
     0.0000000000000000    0.0000000000000000   25.8809719999999999
Ir  O Ir  O
  16  32  16  32
Selective dynamics
Cartesian
  1.6010664999999999  3.2351215000000000  4.8526822500000000   F   F   F
  4.8031994999999998  3.2351215000000000  4.8526822500000000   F   F   F
  1.6010664999999999  0.0000000000000000  1.6175607500000000   F   F   F
  4.8031994999999998  0.0000000000000000  1.6175607500000000   F   F   F
  0.0000000000000000  3.2351215000000000  1.6175607500000000   F   F   F
  3.2021329999999999  3.2351215000000000  1.6175607500000000   F   F   F
  0.0000000000000000  0.0000000000000000  4.8526822500000000   F   F   F
  3.2021329999999999  0.0000000000000000  4.8526822500000000   F   F   F
  1.6051551592085302  3.2351215000000000 11.3582491166153634   F   F   F
  4.7997110441100626  3.2351215000000000 11.3580000027280335   F   F   F
  1.5976462829226781  0.0000000000000000  8.0740467670850844   F   F   F
  4.8074388588003760  0.0000000000000000  8.0736488857725099   F   F   F
 -0.0039377367534519  3.2351215000000000  8.0965010038525946   F   F   F
  3.2028779910899399  3.2351215000000000  8.0940577548091870   F   F   F
 -0.0073230814803699  0.0000000000000000 11.2659753576587622   F   F   F
  3.2020512301494288  0.0000000000000000 11.2614672979814969   F   F   F
  0.0000000000000000  3.2351215000000000  3.6132425009199376   F   F   F
  3.2021329999999999  3.2351215000000000  3.6132425009199376   F   F   F
  0.0000000000000000  0.0000000000000000  0.3781210009199379   F   F   F
  3.2021329999999999  0.0000000000000000  0.3781210009199379   F   F   F
  1.6010664999999999  5.2308032509199833  4.8526822500000000   F   F   F
  4.8031994999999998  5.2308032509199833  4.8526822500000000   F   F   F
  1.6010664999999999  1.9956817509199831  1.6175607500000000   F   F   F
  4.8031994999999998  1.9956817509199831  1.6175607500000000   F   F   F
  0.0000000000000000  3.2351215000000000  6.0921219990800619   F   F   F
  3.2021329999999999  3.2351215000000000  6.0921219990800619   F   F   F
  0.0000000000000000  0.0000000000000000  2.8570004990800624   F   F   F
  3.2021329999999999  0.0000000000000000  2.8570004990800624   F   F   F
  1.6010664999999999  1.2394397490800166  4.8526822500000000   F   F   F
  4.8031994999999998  1.2394397490800166  4.8526822500000000   F   F   F
  1.6010664999999999  4.4745612490800166  1.6175607500000000   F   F   F
  4.8031994999999998  4.4745612490800166  1.6175607500000000   F   F   F
  0.0468067253429934  3.2351215000000000 10.0614321242611382   F   F   F
  3.2032000972738954  3.2351215000000000 10.0870846712989852   F   F   F
 12.7978343540885611  0.0000000000000000  6.8462252054878396   F   F   F
  3.2023822945857430  0.0000000000000000  6.8366810574814973   F   F   F
  1.6064929554681087  5.2430441055292114 11.4073109273890605   F   F   F
  4.7978358805267520  5.2428206999462024 11.4072482549094669   F   F   F
  1.5994858968680032  1.9941922041223872  8.0786522352514964   F   F   F
  4.8059119885455175  1.9941915580164842  8.0774824808212866   F   F   F
 12.7986179098131156  3.2351215000000000 12.5313319621493910   F   F   F
  3.2020822490622227  3.2351215000000000 12.5355517377761174   F   F   F
 12.8081297083584982  0.0000000000000000  9.3108290761160362   F   F   F
  3.2021310716900286  0.0000000000000000  9.3037813856857650   F   F   F
  1.6064929554681087  1.2271988944707872 11.4073109273890605   F   F   F
  4.7978358805267520  1.2274223000537545 11.4072482549094669   F   F   F
  1.5994858968680032  4.4760507958776117  8.0786522352514964   F   F   F
  4.8059119885455175  4.4760514419835165  8.0774824808212866   F   F   F
  8.0053324999999997  3.2351215000000000  4.8526822500000000   F   F   F
 11.2074654999999996  3.2351215000000000  4.8526822500000000   F   F   F
  8.0053324999999997  0.0000000000000000  1.6175607500000000   F   F   F
 11.2074654999999996  0.0000000000000000  1.6175607500000000   F   F   F
  6.4042659999999998  3.2351215000000000  1.6175607500000000   F   F   F
  9.6063989999999997  3.2351215000000000  1.6175607500000000   F   F   F
  6.4042659999999998  0.0000000000000000  4.8526822500000000   F   F   F
  9.6063989999999997  0.0000000000000000  4.8526822500000000   F   F   F
  7.9912480198762914  3.2351215000000000 11.3406636929706259   F   F   F
 11.2220977166484701  3.2351215000000000 11.3425463689787485   F   F   F
  8.0245795275226861  0.0000000000000000  8.1014125354212823   F   F   F
 11.1891337523295675  0.0000000000000000  8.1020967622372595   F   F   F
  6.4091536472056125  3.2351215000000000  8.0964509017290016   F   F   F
  9.6069319829006279  3.2351215000000000  8.1140961661095883   F   F   F
  6.4106756794923427  0.0000000000000000 11.2649235727691170   F   F   F
  9.6053987425465124  0.0000000000000000 11.4890810397978331   F   F   F
  6.4042659999999998  3.2351215000000000  3.6132425009199376   F   F   F
  9.6063989999999997  3.2351215000000000  3.6132425009199376   F   F   F
  6.4042659999999998  0.0000000000000000  0.3781210009199379   F   F   F
  9.6063989999999997  0.0000000000000000  0.3781210009199379   F   F   F
  8.0053324999999997  5.2308032509199833  4.8526822500000000   F   F   F
 11.2074654999999996  5.2308032509199833  4.8526822500000000   F   F   F
  8.0053324999999997  1.9956817509199831  1.6175607500000000   F   F   F
 11.2074654999999996  1.9956817509199831  1.6175607500000000   F   F   F
  6.4042659999999998  3.2351215000000000  6.0921219990800619   F   F   F
  9.6063989999999997  3.2351215000000000  6.0921219990800619   F   F   F
  6.4042659999999998  0.0000000000000000  2.8570004990800624   F   F   F
  9.6063989999999997  0.0000000000000000  2.8570004990800624   F   F   F
  8.0053324999999997  1.2394397490800166  4.8526822500000000   F   F   F
 11.2074654999999996  1.2394397490800166  4.8526822500000000   F   F   F
  8.0053324999999997  4.4745612490800166  1.6175607500000000   F   F   F
 11.2074654999999996  4.4745612490800166  1.6175607500000000   F   F   F
  6.3581365144716999  3.2351215000000000 10.0613265056659849   F   F   F
  9.6068278939291503  3.2351215000000000 10.1304043128397048   F   F   F
  6.4153902831111722  0.0000000000000000  6.8453667970177561   F   F   F
  9.6069732588403465  0.0000000000000000  6.8484867395335529   F   F   F
  8.0000778148299059  5.2259616934898805 11.3973244699358318   F   F   F
 11.2108060393840869  5.2265479669498696 11.3999075293506102   F   F   F
  8.0078434737870552  1.9934291798097021  8.1129718532645398   F   F   F
 11.2058904340886745  1.9935552771550906  8.1138101514433636   F   F   F
  6.4148396317316134  3.2351215000000000 12.5295428741513106   F   F   F
  6.4048414488428946  0.0000000000000000  9.3096681102289232   F   F   F
  9.6067114298745686  0.0000000000000000  9.3730320630678801   F   F   F
  8.0000778148299059  1.2442813065101208 11.3973244699358318   F   F   F
 11.2108060393840869  1.2436950330501300 11.3999075293506102   F   F   F
  8.0078434737870552  4.4768138201902961  8.1129718532645398   F   F   F
 11.2058904340886745  4.4766877228449120  8.1138101514433636   F   F   F
  9.6016642420759268  0.0000000000000000 13.2919370496375873   T   T   T
