Ir64 O138
1.0
12.808532 0.000000 0.000000
0.000000 12.940486 0.000000
0.000000 0.000000 25.880972
Ir O
64 138
Selective dynamics
direct
0.125000 0.250000 0.187500 F F F Ir
0.375000 0.250000 0.187500 F F F Ir
0.125000 0.000000 0.062500 F F F Ir
0.375000 0.000000 0.062500 F F F Ir
0.000000 0.250000 0.062500 F F F Ir
0.250000 0.250000 0.062500 F F F Ir
0.000000 0.000000 0.187500 F F F Ir
0.250000 0.000000 0.187500 F F F Ir
0.129486 0.248675 0.437977 T T T Ir
0.376177 0.248406 0.437589 T T T Ir
0.124995 0.999192 0.312645 T T T Ir
0.375057 0.999219 0.312687 T T T Ir
0.999990 0.249294 0.313385 T T T Ir
0.249707 0.249233 0.312455 T T T Ir
0.999946 0.998851 0.440779 T T T Ir
0.249989 0.998284 0.441072 T T T Ir
0.625000 0.250000 0.187500 F F F Ir
0.875000 0.250000 0.187500 F F F Ir
0.625000 0.000000 0.062500 F F F Ir
0.875000 0.000000 0.062500 F F F Ir
0.500000 0.250000 0.062500 F F F Ir
0.750000 0.250000 0.062500 F F F Ir
0.500000 0.000000 0.187500 F F F Ir
0.750000 0.000000 0.187500 F F F Ir
0.623788 0.248413 0.437581 T T T Ir
0.870436 0.248684 0.437978 T T T Ir
0.624909 0.999228 0.312687 T T T Ir
0.874986 0.999207 0.312649 T T T Ir
0.499976 0.249198 0.312410 T T T Ir
0.750256 0.249245 0.312438 T T T Ir
0.499953 0.998336 0.441361 T T T Ir
0.749908 0.998293 0.441066 T T T Ir
0.125000 0.750000 0.187500 F F F Ir
0.375000 0.750000 0.187500 F F F Ir
0.125000 0.500000 0.062500 F F F Ir
0.375000 0.500000 0.062500 F F F Ir
0.000000 0.750000 0.062500 F F F Ir
0.250000 0.750000 0.062500 F F F Ir
0.000000 0.500000 0.187500 F F F Ir
0.250000 0.500000 0.187500 F F F Ir
0.124917 0.748506 0.437928 T T T Ir
0.375047 0.748586 0.437994 T T T Ir
0.124932 0.499263 0.312796 T T T Ir
0.374974 0.499297 0.312756 T T T Ir
0.999995 0.749203 0.312838 T T T Ir
0.249998 0.749251 0.312893 T T T Ir
0.999988 0.498251 0.441425 T T T Ir
0.250352 0.498887 0.441444 T T T Ir
0.625000 0.750000 0.187500 F F F Ir
0.875000 0.750000 0.187500 F F F Ir
0.625000 0.500000 0.062500 F F F Ir
0.875000 0.500000 0.062500 F F F Ir
0.500000 0.750000 0.062500 F F F Ir
0.750000 0.750000 0.062500 F F F Ir
0.500000 0.500000 0.187500 F F F Ir
0.750000 0.500000 0.187500 F F F Ir
0.624929 0.748602 0.437999 T T T Ir
0.875048 0.748503 0.437908 T T T Ir
0.624976 0.499300 0.312754 T T T Ir
0.875018 0.499253 0.312801 T T T Ir
0.499996 0.749237 0.312907 T T T Ir
0.749980 0.749267 0.312888 T T T Ir
0.499967 0.498726 0.441281 T T T Ir
0.749597 0.498879 0.441463 T T T Ir
0.000000 0.250000 0.139610 F F F O
0.250000 0.250000 0.139610 F F F O
0.000000 0.000000 0.014610 F F F O
0.250000 0.000000 0.014610 F F F O
0.125000 0.404220 0.187500 F F F O
0.375000 0.404220 0.187500 F F F O
0.125000 0.154220 0.062500 F F F O
0.375000 0.154220 0.062500 F F F O
0.000000 0.250000 0.235390 F F F O
0.250000 0.250000 0.235390 F F F O
0.000000 0.000000 0.110390 F F F O
0.250000 0.000000 0.110390 F F F O
0.125000 0.095780 0.187500 F F F O
0.375000 0.095780 0.187500 F F F O
0.125000 0.345780 0.062500 F F F O
0.375000 0.345780 0.062500 F F F O
0.999974 0.249370 0.390958 T T T O
0.250787 0.248600 0.389004 T T T O
0.999997 0.999653 0.264868 T T T O
0.250031 0.999672 0.264762 T T T O
0.126093 0.403044 0.437051 T T T O
0.375515 0.403053 0.435774 T T T O
0.124652 0.153193 0.312608 T T T O
0.374978 0.153195 0.312122 T T T O
0.999981 0.248744 0.487244 T T T O
0.252862 0.248614 0.483516 T T T O
0.000017 0.999216 0.360664 T T T O
0.250047 0.998741 0.360671 T T T O
0.125770 0.094230 0.436251 T T T O
0.375288 0.093876 0.435988 T T T O
0.124702 0.345234 0.312713 T T T O
0.375036 0.345263 0.312202 T T T O
0.500000 0.250000 0.139610 F F F O
0.750000 0.250000 0.139610 F F F O
0.500000 0.000000 0.014610 F F F O
0.750000 0.000000 0.014610 F F F O
0.625000 0.404220 0.187500 F F F O
0.875000 0.404220 0.187500 F F F O
0.625000 0.154220 0.062500 F F F O
0.875000 0.154220 0.062500 F F F O
0.500000 0.250000 0.235390 F F F O
0.750000 0.250000 0.235390 F F F O
0.500000 0.000000 0.110390 F F F O
0.750000 0.000000 0.110390 F F F O
0.625000 0.095780 0.187500 F F F O
0.875000 0.095780 0.187500 F F F O
0.625000 0.345780 0.062500 F F F O
0.875000 0.345780 0.062500 F F F O
0.499974 0.248019 0.388760 T T T O
0.749156 0.248634 0.388988 T T T O
0.499974 0.999695 0.264878 T T T O
0.749942 0.999669 0.264756 T T T O
0.624421 0.403077 0.435762 T T T O
0.873884 0.403026 0.437064 T T T O
0.624976 0.153201 0.312093 T T T O
0.875270 0.153207 0.312594 T T T O
0.499989 0.248466 0.483134 T T T O
0.747116 0.248571 0.483502 T T T O
0.499975 0.999057 0.360847 T T T O
0.749911 0.998846 0.360652 T T T O
0.624639 0.093871 0.435989 T T T O
0.874108 0.094230 0.436211 T T T O
0.624889 0.345265 0.312218 T T T O
0.875305 0.345245 0.312722 T T T O
0.751126 0.998311 0.510458 T T T O
0.000000 0.750000 0.139610 F F F O
0.250000 0.750000 0.139610 F F F O
0.000000 0.500000 0.014610 F F F O
0.250000 0.500000 0.014610 F F F O
0.125000 0.904220 0.187500 F F F O
0.375000 0.904220 0.187500 F F F O
0.125000 0.654220 0.062500 F F F O
0.375000 0.654220 0.062500 F F F O
0.000000 0.750000 0.235390 F F F O
0.250000 0.750000 0.235390 F F F O
0.000000 0.500000 0.110390 F F F O
0.250000 0.500000 0.110390 F F F O
0.125000 0.595780 0.187500 F F F O
0.375000 0.595780 0.187500 F F F O
0.125000 0.845780 0.062500 F F F O
0.375000 0.845780 0.062500 F F F O
0.999986 0.748284 0.389352 T T T O
0.249960 0.748681 0.389508 T T T O
0.000004 0.499895 0.264934 T T T O
0.249943 0.499681 0.264821 T T T O
0.124710 0.903014 0.435554 T T T O
0.375262 0.902843 0.436416 T T T O
0.124932 0.653204 0.312537 T T T O
0.375099 0.653258 0.312566 T T T O
0.999949 0.748385 0.483389 T T T O
0.249974 0.748601 0.483478 T T T O
0.999978 0.498581 0.361019 T T T O
0.249973 0.498723 0.360827 T T T O
0.124945 0.594025 0.436543 T T T O
0.375391 0.594330 0.436202 T T T O
0.124805 0.845204 0.312580 T T T O
0.375194 0.845212 0.312697 T T T O
0.500000 0.750000 0.139610 F F F O
0.750000 0.750000 0.139610 F F F O
0.500000 0.500000 0.014610 F F F O
0.750000 0.500000 0.014610 F F F O
0.625000 0.904220 0.187500 F F F O
0.875000 0.904220 0.187500 F F F O
0.625000 0.654220 0.062500 F F F O
0.875000 0.654220 0.062500 F F F O
0.500000 0.750000 0.235390 F F F O
0.750000 0.750000 0.235390 F F F O
0.500000 0.500000 0.110390 F F F O
0.750000 0.500000 0.110390 F F F O
0.625000 0.595780 0.187500 F F F O
0.875000 0.595780 0.187500 F F F O
0.625000 0.845780 0.062500 F F F O
0.875000 0.845780 0.062500 F F F O
0.499994 0.748619 0.389526 T T T O
0.750016 0.748713 0.389512 T T T O
0.499998 0.499851 0.264929 T T T O
0.750029 0.499651 0.264823 T T T O
0.624717 0.902841 0.436414 T T T O
0.875203 0.902999 0.435492 T T T O
0.624889 0.653265 0.312566 T T T O
0.875075 0.653213 0.312552 T T T O
0.499988 0.748281 0.483510 T T T O
0.749999 0.748639 0.483473 T T T O
0.499980 0.499030 0.360859 T T T O
0.750035 0.498752 0.360826 T T T O
0.624592 0.594340 0.436196 T T T O
0.875018 0.594023 0.436526 T T T O
0.624755 0.845209 0.312666 T T T O
0.875170 0.845201 0.312562 T T T O
0.248820 0.998423 0.510476 T T T O
0.251777 0.499228 0.510857 T T T O
0.748253 0.499272 0.510873 T T T O
0.999963 0.998265 0.510247 T T T O
0.499968 0.498224 0.510672 T T T O
0.500036 0.998617 0.510776 T T T O
0.000019 0.498447 0.510886 T T T O
0.000023 0.248228 0.537789 T T T O
0.624111 0.498748 0.545547 T T T O
