Ir64 O138
1.0
12.808532 0.000000 0.000000
0.000000 12.940486 0.000000
0.000000 0.000000 25.880972
Ir O
64 138
Selective dynamics
direct
0.125000 0.250000 0.187500 F F F Ir
0.375000 0.250000 0.187500 F F F Ir
0.125000 0.000000 0.062500 F F F Ir
0.375000 0.000000 0.062500 F F F Ir
0.000000 0.250000 0.062500 F F F Ir
0.250000 0.250000 0.062500 F F F Ir
0.000000 0.000000 0.187500 F F F Ir
0.250000 0.000000 0.187500 F F F Ir
0.125705 0.248533 0.437857 T T T Ir
0.375574 0.248550 0.437808 T T T Ir
0.125178 0.999162 0.312779 T T T Ir
0.375385 0.999175 0.312943 T T T Ir
0.000161 0.249190 0.312843 T T T Ir
0.250198 0.249166 0.312823 T T T Ir
0.001164 0.998463 0.441685 T T T Ir
0.250709 0.998420 0.440990 T T T Ir
0.625000 0.250000 0.187500 F F F Ir
0.875000 0.250000 0.187500 F F F Ir
0.625000 0.000000 0.062500 F F F Ir
0.875000 0.000000 0.062500 F F F Ir
0.500000 0.250000 0.062500 F F F Ir
0.750000 0.250000 0.062500 F F F Ir
0.500000 0.000000 0.187500 F F F Ir
0.750000 0.000000 0.187500 F F F Ir
0.625453 0.248015 0.438249 T T T Ir
0.876000 0.248259 0.438062 T T T Ir
0.624825 0.999175 0.312952 T T T Ir
0.875388 0.999185 0.312874 T T T Ir
0.500279 0.249187 0.312906 T T T Ir
0.750216 0.249060 0.313024 T T T Ir
0.500363 0.998479 0.442240 T T T Ir
0.751129 0.998492 0.439602 T T T Ir
0.125000 0.750000 0.187500 F F F Ir
0.375000 0.750000 0.187500 F F F Ir
0.125000 0.500000 0.062500 F F F Ir
0.375000 0.500000 0.062500 F F F Ir
0.000000 0.750000 0.062500 F F F Ir
0.250000 0.750000 0.062500 F F F Ir
0.000000 0.500000 0.187500 F F F Ir
0.250000 0.500000 0.187500 F F F Ir
0.125657 0.748251 0.437820 T T T Ir
0.375531 0.748248 0.437886 T T T Ir
0.125080 0.499173 0.312691 T T T Ir
0.375139 0.499170 0.312694 T T T Ir
0.000126 0.749129 0.312833 T T T Ir
0.250184 0.749165 0.312837 T T T Ir
0.000175 0.498381 0.441096 T T T Ir
0.250333 0.498396 0.441098 T T T Ir
0.625000 0.750000 0.187500 F F F Ir
0.875000 0.750000 0.187500 F F F Ir
0.625000 0.500000 0.062500 F F F Ir
0.875000 0.500000 0.062500 F F F Ir
0.500000 0.750000 0.062500 F F F Ir
0.750000 0.750000 0.062500 F F F Ir
0.500000 0.500000 0.187500 F F F Ir
0.750000 0.500000 0.187500 F F F Ir
0.625405 0.748801 0.438317 T T T Ir
0.875921 0.748664 0.437986 T T T Ir
0.625128 0.499230 0.312675 T T T Ir
0.875165 0.499209 0.312662 T T T Ir
0.500191 0.749187 0.312942 T T T Ir
0.750123 0.749342 0.313004 T T T Ir
0.500620 0.498397 0.440927 T T T Ir
0.750343 0.498439 0.440862 T T T Ir
0.000000 0.250000 0.139610 F F F O
0.250000 0.250000 0.139610 F F F O
0.000000 0.000000 0.014610 F F F O
0.250000 0.000000 0.014610 F F F O
0.125000 0.404220 0.187500 F F F O
0.375000 0.404220 0.187500 F F F O
0.125000 0.154220 0.062500 F F F O
0.375000 0.154220 0.062500 F F F O
0.000000 0.250000 0.235390 F F F O
0.250000 0.250000 0.235390 F F F O
0.000000 0.000000 0.110390 F F F O
0.250000 0.000000 0.110390 F F F O
0.125000 0.095780 0.187500 F F F O
0.375000 0.095780 0.187500 F F F O
0.125000 0.345780 0.062500 F F F O
0.375000 0.345780 0.062500 F F F O
0.000575 0.248796 0.389434 T T T O
0.250389 0.248654 0.389321 T T T O
0.000276 0.999657 0.264853 T T T O
0.250355 0.999519 0.264871 T T T O
0.125240 0.402914 0.435788 T T T O
0.375586 0.402940 0.435860 T T T O
0.125023 0.153164 0.312466 T T T O
0.375348 0.153121 0.312512 T T T O
0.001163 0.248686 0.483473 T T T O
0.250793 0.248966 0.483344 T T T O
0.000313 0.999017 0.360963 T T T O
0.250191 0.998784 0.360776 T T T O
0.125778 0.094154 0.436000 T T T O
0.375614 0.094138 0.435772 T T T O
0.124993 0.345141 0.312523 T T T O
0.375346 0.345148 0.312533 T T T O
0.500000 0.250000 0.139610 F F F O
0.750000 0.250000 0.139610 F F F O
0.500000 0.000000 0.014610 F F F O
0.750000 0.000000 0.014610 F F F O
0.625000 0.404220 0.187500 F F F O
0.875000 0.404220 0.187500 F F F O
0.625000 0.154220 0.062500 F F F O
0.875000 0.154220 0.062500 F F F O
0.500000 0.250000 0.235390 F F F O
0.750000 0.250000 0.235390 F F F O
0.500000 0.000000 0.110390 F F F O
0.750000 0.000000 0.110390 F F F O
0.625000 0.095780 0.187500 F F F O
0.875000 0.095780 0.187500 F F F O
0.625000 0.345780 0.062500 F F F O
0.875000 0.345780 0.062500 F F F O
0.500404 0.248571 0.389501 T T T O
0.750500 0.247831 0.389684 T T T O
0.500021 0.999850 0.264960 T T T O
0.750073 0.999507 0.264920 T T T O
0.625548 0.402709 0.435231 T T T O
0.875436 0.402780 0.435765 T T T O
0.625052 0.153088 0.312786 T T T O
0.875307 0.153067 0.312635 T T T O
0.500180 0.248341 0.483441 T T T O
0.751133 0.248224 0.483796 T T T O
0.500519 0.998763 0.361408 T T T O
0.749898 0.998739 0.360878 T T T O
0.625184 0.093597 0.438713 T T T O
0.877199 0.094436 0.437202 T T T O
0.625170 0.345173 0.312656 T T T O
0.875336 0.345153 0.312554 T T T O
0.762104 0.997828 0.515132 T T T O
0.000000 0.750000 0.139610 F F F O
0.250000 0.750000 0.139610 F F F O
0.000000 0.500000 0.014610 F F F O
0.250000 0.500000 0.014610 F F F O
0.125000 0.904220 0.187500 F F F O
0.375000 0.904220 0.187500 F F F O
0.125000 0.654220 0.062500 F F F O
0.375000 0.654220 0.062500 F F F O
0.000000 0.750000 0.235390 F F F O
0.250000 0.750000 0.235390 F F F O
0.000000 0.500000 0.110390 F F F O
0.250000 0.500000 0.110390 F F F O
0.125000 0.595780 0.187500 F F F O
0.375000 0.595780 0.187500 F F F O
0.125000 0.845780 0.062500 F F F O
0.375000 0.845780 0.062500 F F F O
0.000466 0.748180 0.389353 T T T O
0.250396 0.748542 0.389374 T T T O
0.000106 0.499764 0.264878 T T T O
0.250115 0.499633 0.264791 T T T O
0.125693 0.902663 0.435681 T T T O
0.375604 0.902708 0.435664 T T T O
0.125036 0.653166 0.312437 T T T O
0.375216 0.653136 0.312488 T T T O
0.001060 0.747990 0.483387 T T T O
0.250674 0.748173 0.483383 T T T O
0.000096 0.498924 0.360730 T T T O
0.250106 0.498771 0.360739 T T T O
0.125232 0.593828 0.436022 T T T O
0.375553 0.593860 0.436128 T T T O
0.125027 0.845145 0.312713 T T T O
0.375388 0.845173 0.312656 T T T O
0.500000 0.750000 0.139610 F F F O
0.750000 0.750000 0.139610 F F F O
0.500000 0.500000 0.014610 F F F O
0.750000 0.500000 0.014610 F F F O
0.625000 0.904220 0.187500 F F F O
0.875000 0.904220 0.187500 F F F O
0.625000 0.654220 0.062500 F F F O
0.875000 0.654220 0.062500 F F F O
0.500000 0.750000 0.235390 F F F O
0.750000 0.750000 0.235390 F F F O
0.500000 0.500000 0.110390 F F F O
0.750000 0.500000 0.110390 F F F O
0.625000 0.595780 0.187500 F F F O
0.875000 0.595780 0.187500 F F F O
0.625000 0.845780 0.062500 F F F O
0.875000 0.845780 0.062500 F F F O
0.500326 0.748685 0.389567 T T T O
0.750263 0.749423 0.389662 T T T O
0.500059 0.499790 0.264895 T T T O
0.750108 0.499639 0.264771 T T T O
0.624936 0.903300 0.438883 T T T O
0.877355 0.902571 0.436821 T T T O
0.625069 0.653291 0.312450 T T T O
0.875122 0.653210 0.312449 T T T O
0.500215 0.747760 0.483552 T T T O
0.751191 0.748496 0.483771 T T T O
0.500102 0.498918 0.360670 T T T O
0.750242 0.498889 0.360614 T T T O
0.625547 0.594056 0.435507 T T T O
0.875343 0.594069 0.435919 T T T O
0.624959 0.845259 0.312865 T T T O
0.875360 0.845248 0.312791 T T T O
0.251351 0.998447 0.510374 T T T O
0.250380 0.498550 0.510465 T T T O
0.749843 0.498496 0.510235 T T T O
0.003808 0.998281 0.510979 T T T O
0.501526 0.497798 0.510284 T T T O
0.495134 0.999323 0.511359 T T T O
0.999819 0.498012 0.510498 T T T O
0.682775 0.993905 0.545209 T T T O
0.127094 0.248416 0.545497 T T T O
