Ir  O Ir  O 
 1.0000000000000000
    12.8085319999999996    0.0000000000000000    0.0000000000000000
     0.0000000000000000    6.4702430000000000    0.0000000000000000
     0.0000000000000000    0.0000000000000000   25.8809719999999999
  16  32  16  34
Selective dynamics
Cartesian
  1.6010664999999999  3.2351215000000000  4.8526822500000000   F   F   F
  4.8031994999999998  3.2351215000000000  4.8526822500000000   F   F   F
  1.6010664999999999  0.0000000000000000  1.6175607500000000   F   F   F
  4.8031994999999998  0.0000000000000000  1.6175607500000000   F   F   F
  0.0000000000000000  3.2351215000000000  1.6175607500000000   F   F   F
  3.2021329999999999  3.2351215000000000  1.6175607500000000   F   F   F
  0.0000000000000000  0.0000000000000000  4.8526822500000000   F   F   F
  3.2021329999999999  0.0000000000000000  4.8526822500000000   F   F   F
  1.5983985827949907  3.2345246211921905 11.3760717748176035   T   T   T
  4.8027875104881987  3.2329813705331545 11.3827157247628712   T   T   T
  1.5963038633137716  0.0026704177622290  8.0762944682385438   T   T   T
  4.7983278395487146  0.0032275125979681  8.0797898902682732   T   T   T
 -0.0022806102797590  3.2377619795415513  8.1113143973912827   T   T   T
  3.1967755548769898  3.2374478889299128  8.1106933986332184   T   T   T
 -0.0316146446783468 -0.0023255830707018 11.2692187477898944   T   T   T
  3.2291754026752093 -0.0009491660492739 11.2794506439243332   T   T   T
  0.0000000000000000  3.2351215000000000  3.6132425009199376   F   F   F
  3.2021329999999999  3.2351215000000000  3.6132425009199376   F   F   F
  0.0000000000000000  0.0000000000000000  0.3781210009199379   F   F   F
  3.2021329999999999  0.0000000000000000  0.3781210009199379   F   F   F
  1.6010664999999999  5.2308032509199833  4.8526822500000000   F   F   F
  4.8031994999999998  5.2308032509199833  4.8526822500000000   F   F   F
  1.6010664999999999  1.9956817509199831  1.6175607500000000   F   F   F
  4.8031994999999998  1.9956817509199831  1.6175607500000000   F   F   F
  0.0000000000000000  3.2351215000000000  6.0921219990800619   F   F   F
  3.2021329999999999  3.2351215000000000  6.0921219990800619   F   F   F
  0.0000000000000000  0.0000000000000000  2.8570004990800624   F   F   F
  3.2021329999999999  0.0000000000000000  2.8570004990800624   F   F   F
  1.6010664999999999  1.2394397490800166  4.8526822500000000   F   F   F
  4.8031994999999998  1.2394397490800166  4.8526822500000000   F   F   F
  1.6010664999999999  4.4745612490800166  1.6175607500000000   F   F   F
  4.8031994999999998  4.4745612490800166  1.6175607500000000   F   F   F
 -0.0051826980027342  3.2333109871482901 10.1118251842935507   T   T   T
  3.2021483673406319  3.2340326087564519 10.1098594934044712   T   T   T
  0.0034552248779912  0.0046084769950555  6.8340867512788748   T   T   T
  3.1929212950427983  0.0039682278091365  6.8374139188061163   T   T   T
  1.5996439109696721  5.2458080882688236 11.3990130966952403   T   T   T
  4.8256858256389901  5.2423923646105131 11.4728323939500605   T   T   T
  1.5946175329656422  1.9967417515594232  8.1076334808127637   T   T   T
  4.7951135714477875  1.9971791042359714  8.0898196339328461   T   T   T
 -0.0075292032571069  3.2368900131427978 12.5622839878471755   T   T   T
  3.2010731464964501  3.2310535601749351 12.5655698327214651   T   T   T
 -0.0033652008138268  0.0022100291189089  9.3044948834938506   T   T   T
  3.1933593889800789  0.0000608320511463  9.3132241413013954   T   T   T
  1.5991269084717026  1.2216823413166373 11.4026652973355223   T   T   T
  4.8248118012922303  1.2230606702116289 11.4784342140780602   T   T   T
  1.5950657174455745  4.4782462221337402  8.1081189558403111   T   T   T
  4.7948817078881527  4.4796110024377382  8.0916734049696739   T   T   T
  8.0053324999999997  3.2351215000000000  4.8526822500000000   F   F   F
 11.2074654999999996  3.2351215000000000  4.8526822500000000   F   F   F
  8.0053324999999997  0.0000000000000000  1.6175607500000000   F   F   F
 11.2074654999999996  0.0000000000000000  1.6175607500000000   F   F   F
  6.4042659999999998  3.2351215000000000  1.6175607500000000   F   F   F
  9.6063989999999997  3.2351215000000000  1.6175607500000000   F   F   F
  6.4042659999999998  0.0000000000000000  4.8526822500000000   F   F   F
  9.6063989999999997  0.0000000000000000  4.8526822500000000   F   F   F
  8.0006016137801641  3.2302972068055475 11.2826160756579323   T   T   T
 11.1989715258341587  3.2310067686301061 11.3769784053747109   T   T   T
  7.9984145333158807  0.0027804881552521  8.1055836044693610   T   T   T
 11.2013908107789621  0.0031906182522985  8.0739585659858797   T   T   T
  6.3952002311819935  3.2377234104493198  8.0926747389558837   T   T   T
  9.6068949340354077  3.2374431091658771  8.0928820698658104   T   T   T
  6.4746956235328765 -0.0044807874990605 11.3554430725625117   T   T   T
  9.5282119170025386 -0.0047198968576525 11.3476575420601566   T   T   T
  6.4042659999999998  3.2351215000000000  3.6132425009199376   F   F   F
  9.6063989999999997  3.2351215000000000  3.6132425009199376   F   F   F
  6.4042659999999998  0.0000000000000000  0.3781210009199379   F   F   F
  9.6063989999999997  0.0000000000000000  0.3781210009199379   F   F   F
  8.0053324999999997  5.2308032509199833  4.8526822500000000   F   F   F
 11.2074654999999996  5.2308032509199833  4.8526822500000000   F   F   F
  8.0053324999999997  1.9956817509199831  1.6175607500000000   F   F   F
 11.2074654999999996  1.9956817509199831  1.6175607500000000   F   F   F
  6.4042659999999998  3.2351215000000000  6.0921219990800619   F   F   F
  9.6063989999999997  3.2351215000000000  6.0921219990800619   F   F   F
  6.4042659999999998  0.0000000000000000  2.8570004990800624   F   F   F
  9.6063989999999997  0.0000000000000000  2.8570004990800624   F   F   F
  8.0053324999999997  1.2394397490800166  4.8526822500000000   F   F   F
 11.2074654999999996  1.2394397490800166  4.8526822500000000   F   F   F
  8.0053324999999997  4.4745612490800166  1.6175607500000000   F   F   F
 11.2074654999999996  4.4745612490800166  1.6175607500000000   F   F   F
  6.3697532313971523  3.2322016302337460 10.0717914448937069   T   T   T
  9.6273291354253612  3.2274646904896436 10.0710906064215084   T   T   T
  6.4059903548312622 -0.0001019472706339  6.8546826823204441   T   T   T
  9.5954760846904801 -0.0008716847755962  6.8494448034990887   T   T   T
  8.0014862152158521  5.2004427372333684 11.0719531231854749   T   T   T
 11.1776440504871282  5.2408146770446518 11.4508442480897390   T   T   T
  7.9991393643088919  1.9963511215207126  8.0853494835326210   T   T   T
 11.2095182710009329  1.9970995004147616  8.0876599454778813   T   T   T
  6.4458487367931427  3.2322036358407589 12.5099118224385109   T   T   T
  9.5582351177179632  3.2337811860621604 12.5062514667896103   T   T   T
  6.3431653964090922  0.0105128300717310  9.3318559874652838   T   T   T
  9.6526275550883653  0.0068499466482433  9.3257551283484119   T   T   T
  8.0006583468808525  1.2608605024395405 11.0889436876405778   T   T   T
 11.1788870358792600  1.2228901772760632 11.4601968243301489   T   T   T
  7.9977683529657693  4.4784082610494220  8.0902481640879600   T   T   T
 11.2093535220347178  4.4798896935033650  8.0917103383293529   T   T   T
  8.7059924808158264 -0.0179266684303274 13.2006073486124826   T   T   T
  7.3027525020291559 -0.0228464682641848 13.2044168313301657   T   T   T
