Ir  O 
 1.0000000000000000
    12.8085319999999996    0.0000000000000000    0.0000000000000000
     0.0000000000000000   12.9404859999999999    0.0000000000000000
     0.0000000000000000    0.0000000000000000   25.8809719999999999
  64 141
Selective dynamics
Cartesian
  1.6010664999999999  3.2351215000000000  4.8526822500000000   F   F   F
  8.0053324999999997  3.2351215000000000  4.8526822500000000   F   F   F
  4.8031994999999998  3.2351215000000000  4.8526822500000000   F   F   F
 11.2074654999999996  3.2351215000000000  4.8526822500000000   F   F   F
  1.6010664999999999  0.0000000000000000  1.6175607500000000   F   F   F
  8.0053324999999997  0.0000000000000000  1.6175607500000000   F   F   F
  4.8031994999999998  0.0000000000000000  1.6175607500000000   F   F   F
 11.2074654999999996  0.0000000000000000  1.6175607500000000   F   F   F
  0.0000000000000000  3.2351215000000000  1.6175607500000000   F   F   F
  6.4042659999999998  3.2351215000000000  1.6175607500000000   F   F   F
  3.2021329999999999  3.2351215000000000  1.6175607500000000   F   F   F
  9.6063989999999997  3.2351215000000000  1.6175607500000000   F   F   F
  0.0000000000000000  0.0000000000000000  4.8526822500000000   F   F   F
  6.4042659999999998  0.0000000000000000  4.8526822500000000   F   F   F
  3.2021329999999999  0.0000000000000000  4.8526822500000000   F   F   F
  9.6063989999999997  0.0000000000000000  4.8526822500000000   F   F   F
  1.6057544227120000  2.8736678450479998 12.9809379592359999   T   T   T
  8.0100204227119995  2.8736678450479998 12.9809379592359999   T   T   T
  4.8066321865759996  3.2006868667539998 11.2303748941279995   T   T   T
 11.2108981865759993  3.2006868667539998 11.2303748941279995   T   T   T
  1.5991964543279999  0.0217658974520000  8.1015724271039993   T   T   T
  8.0034624543280000  0.0217658974520000  8.1015724271039993   T   T   T
  4.8019826894600000  0.0251433642980000  8.1000713307279995   T   T   T
 11.2062486894600006  0.0251433642980000  8.1000713307279995   T   T   T
 12.7951086584639988  3.2561109682920000  8.1054028109600011   T   T   T
  6.3908426584639999  3.2561109682920000  8.1054028109600011   T   T   T
  3.2148262552119999  3.2564085994700003  8.1044969769400002   T   T   T
  9.6190922552119993  3.2564085994700003  8.1044969769400002   T   T   T
  0.0297157942400000  0.0060302664760000 11.4388202426159999   T   T   T
  6.4339817942399993  0.0060302664760000 11.4388202426159999   T   T   T
  3.1740310807920000  0.0054091231480000 11.4379402895680009   T   T   T
  9.5782970807919998  0.0054091231480000 11.4379402895680009   T   T   T
  1.6010664999999999  9.7053644999999999  4.8526822500000000   F   F   F
  8.0053324999999997  9.7053644999999999  4.8526822500000000   F   F   F
  4.8031994999999998  9.7053644999999999  4.8526822500000000   F   F   F
 11.2074654999999996  9.7053644999999999  4.8526822500000000   F   F   F
  1.6010664999999999  6.4702430000000000  1.6175607500000000   F   F   F
  8.0053324999999997  6.4702430000000000  1.6175607500000000   F   F   F
  4.8031994999999998  6.4702430000000000  1.6175607500000000   F   F   F
 11.2074654999999996  6.4702430000000000  1.6175607500000000   F   F   F
  0.0000000000000000  9.7053644999999999  1.6175607500000000   F   F   F
  6.4042659999999998  9.7053644999999999  1.6175607500000000   F   F   F
  3.2021329999999999  9.7053644999999999  1.6175607500000000   F   F   F
  9.6063989999999997  9.7053644999999999  1.6175607500000000   F   F   F
  0.0000000000000000  6.4702430000000000  4.8526822500000000   F   F   F
  6.4042659999999998  6.4702430000000000  4.8526822500000000   F   F   F
  3.2021329999999999  6.4702430000000000  4.8526822500000000   F   F   F
  9.6063989999999997  6.4702430000000000  4.8526822500000000   F   F   F
  1.6057672312440001  9.3439884879639994 12.9808861972920013   T   T   T
  8.0100332312439999  9.3439884879639994 12.9808861972920013   T   T   T
  4.8066193780440001  9.6709945691839998 11.2304266560719999   T   T   T
 11.2108853780439990  9.6709945691839998 11.2304266560719999   T   T   T
  1.5991964543279999  6.4921124213399999  8.1015724271039993   T   T   T
  8.0034624543280000  6.4921124213399999  8.1015724271039993   T   T   T
  4.8019826894600000  6.4955028286719996  8.1000713307279995   T   T   T
 11.2062486894600006  6.4955028286719996  8.1000713307279995   T   T   T
 12.7951342755279995  9.7263798492639992  8.1055322158200003   T   T   T
  6.3908682755279997  9.7263798492639992  8.1055322158200003   T   T   T
  3.2147878296159997  9.7266774804419995  8.1046522627719995   T   T   T
  9.6190538296160000  9.7266774804419995  8.1046522627719995   T   T   T
  0.0297542198360000  6.4763767903639993 11.4388202426159999   T   T   T
  6.4340202198359995  6.4763767903639993 11.4388202426159999   T   T   T
  3.1739798466639999  6.4757427065500002 11.4379144085959989   T   T   T
  9.5782458466640001  6.4757427065500002 11.4379144085959989   T   T   T
  0.0000000000000000  3.2351215000000000  3.6132425009200002   F   F   F
  6.4042659999999998  3.2351215000000000  3.6132425009200002   F   F   F
  3.2021329999999999  3.2351215000000000  3.6132425009200002   F   F   F
  9.6063989999999997  3.2351215000000000  3.6132425009200002   F   F   F
  0.0000000000000000  0.0000000000000000  0.3781210009200000   F   F   F
  6.4042659999999998  0.0000000000000000  0.3781210009200000   F   F   F
  3.2021329999999999  0.0000000000000000  0.3781210009200000   F   F   F
  9.6063989999999997  0.0000000000000000  0.3781210009200000   F   F   F
  1.6010664999999999  5.2308032509200002  4.8526822500000000   F   F   F
  8.0053324999999997  5.2308032509200002  4.8526822500000000   F   F   F
  4.8031994999999998  5.2308032509200002  4.8526822500000000   F   F   F
 11.2074654999999996  5.2308032509200002  4.8526822500000000   F   F   F
  1.6010664999999999  1.9956817509200000  1.6175607500000000   F   F   F
  8.0053324999999997  1.9956817509200000  1.6175607500000000   F   F   F
  4.8031994999999998  1.9956817509200000  1.6175607500000000   F   F   F
 11.2074654999999996  1.9956817509200000  1.6175607500000000   F   F   F
  0.0000000000000000  3.2351215000000000  6.0921219990799997   F   F   F
  6.4042659999999998  3.2351215000000000  6.0921219990799997   F   F   F
  3.2021329999999999  3.2351215000000000  6.0921219990799997   F   F   F
  9.6063989999999997  3.2351215000000000  6.0921219990799997   F   F   F
  0.0000000000000000  0.0000000000000000  2.8570004990800002   F   F   F
  6.4042659999999998  0.0000000000000000  2.8570004990800002   F   F   F
  3.2021329999999999  0.0000000000000000  2.8570004990800002   F   F   F
  9.6063989999999997  0.0000000000000000  2.8570004990800002   F   F   F
  1.6010664999999999  1.2394397490800000  4.8526822500000000   F   F   F
  8.0053324999999997  1.2394397490800000  4.8526822500000000   F   F   F
  4.8031994999999998  1.2394397490800000  4.8526822500000000   F   F   F
 11.2074654999999996  1.2394397490800000  4.8526822500000000   F   F   F
  1.6010664999999999  4.4745612490799997  1.6175607500000000   F   F   F
  8.0053324999999997  4.4745612490799997  1.6175607500000000   F   F   F
  4.8031994999999998  4.4745612490799997  1.6175607500000000   F   F   F
 11.2074654999999996  4.4745612490799997  1.6175607500000000   F   F   F
 12.7148888225479997  3.2509088929200001 10.0096212068319996   T   T   T
  6.3106228225479999  3.2509088929200001 10.0096212068319996   T   T   T
  3.3038071270159999  3.2540793119900000 10.0080683485119994   T   T   T
  9.7080731270160001  3.2540793119900000 10.0080683485119994   T   T   T
  0.0000128085320000  0.0090324592280000  6.8571376504279993   T   T   T
  6.4042788085320002  0.0090324592280000  6.8571376504279993   T   T   T
  3.1995456765359997  0.0094724357520000  6.8568529597360000   T   T   T
  9.6038116765359991  0.0094724357520000  6.8568529597360000   T   T   T
  1.6008999890839999  5.3226418800620001 11.2797557887039996   T   T   T
  8.0051659890839986  5.3226418800620001 11.2797557887039996   T   T   T
  4.8043650764120001  5.2267011168580000 11.2292878933039990   T   T   T
 11.2086310764119990  5.2267011168580000 11.2292878933039990   T   T   T
  1.5996703700120001  2.0179652678119999  8.1046005008280009   T   T   T
  8.0039363700119992  2.0179652678119999  8.1046005008280009   T   T   T
  4.8034300535760002  2.0174994103159998  8.0302962302159990   T   T   T
 11.2076960535759991  2.0174994103159998  8.0302962302159990   T   T   T
 12.6219244972919995  3.0551452207119998 12.6086660579879997   T   T   T
  6.2176584972919997  3.0551452207119998 12.6086660579879997   T   T   T
  3.3980394969400001  3.0548217085620002 12.6054309364880002   T   T   T
  9.8023054969399990  3.0548217085620002 12.6054309364880002   T   T   T
  0.0101827829400000  0.0403354948620000  9.3508728265159995   T   T   T
  6.4144487829400001  0.0403354948620000  9.3508728265159995   T   T   T
  3.1889786376360001  0.0360651344820000  9.3503293261039993   T   T   T
  9.5932446376359994  0.0360651344820000  9.3503293261039993   T   T   T
  1.6027188006279998  1.3204342509540001 11.5424217735320003   T   T   T
  8.0069848006280004  1.3204342509540001 11.5424217735320003   T   T   T
  4.8046084385199999  1.1954032752220001 11.1921228175120007   T   T   T
 11.2088744385200005  1.1954032752220001 11.1921228175120007   T   T   T
  1.5979027925959999  4.4946319428660004  8.1099578620320010   T   T   T
  8.0021687925960006  4.4946319428660004  8.1099578620320010   T   T   T
  4.8035069047680006  4.4982164574879997  8.0311244213199995   T   T   T
 11.2077729047679995  4.4982164574879997  8.0311244213199995   T   T   T
  3.3023725714320000 12.9225504864040008 13.2212427842559990   T   T   T
  9.7066385714320003 12.9225504864040008 13.2212427842559990   T   T   T
 12.7064992340879996 12.9269502516439996 13.2215274749479992   T   T   T
  6.3022332340879998 12.9269502516439996 13.2215274749479992   T   T   T
  1.6109162611079999  3.3652510272159999 14.6455761973039991   T   T   T
  8.0151822611080004  3.3652510272159999 14.6455761973039991   T   T   T
  0.0000000000000000  9.7053644999999999  3.6132425009200002   F   F   F
  6.4042659999999998  9.7053644999999999  3.6132425009200002   F   F   F
  3.2021329999999999  9.7053644999999999  3.6132425009200002   F   F   F
  9.6063989999999997  9.7053644999999999  3.6132425009200002   F   F   F
  0.0000000000000000  6.4702430000000000  0.3781210009200000   F   F   F
  6.4042659999999998  6.4702430000000000  0.3781210009200000   F   F   F
  3.2021329999999999  6.4702430000000000  0.3781210009200000   F   F   F
  9.6063989999999997  6.4702430000000000  0.3781210009200000   F   F   F
  1.6010664999999999 11.7010462509200011  4.8526822500000000   F   F   F
  8.0053324999999997 11.7010462509200011  4.8526822500000000   F   F   F
  4.8031994999999998 11.7010462509200011  4.8526822500000000   F   F   F
 11.2074654999999996 11.7010462509200011  4.8526822500000000   F   F   F
  1.6010664999999999  8.4659247509200011  1.6175607500000000   F   F   F
  8.0053324999999997  8.4659247509200011  1.6175607500000000   F   F   F
  4.8031994999999998  8.4659247509200011  1.6175607500000000   F   F   F
 11.2074654999999996  8.4659247509200011  1.6175607500000000   F   F   F
  0.0000000000000000  9.7053644999999999  6.0921219990799997   F   F   F
  6.4042659999999998  9.7053644999999999  6.0921219990799997   F   F   F
  3.2021329999999999  9.7053644999999999  6.0921219990799997   F   F   F
  9.6063989999999997  9.7053644999999999  6.0921219990799997   F   F   F
  0.0000000000000000  6.4702430000000000  2.8570004990800002   F   F   F
  6.4042659999999998  6.4702430000000000  2.8570004990800002   F   F   F
  3.2021329999999999  6.4702430000000000  2.8570004990800002   F   F   F
  9.6063989999999997  6.4702430000000000  2.8570004990800002   F   F   F
  1.6010664999999999  7.7096827490799997  4.8526822500000000   F   F   F
  8.0053324999999997  7.7096827490799997  4.8526822500000000   F   F   F
  4.8031994999999998  7.7096827490799997  4.8526822500000000   F   F   F
 11.2074654999999996  7.7096827490799997  4.8526822500000000   F   F   F
  1.6010664999999999 10.9448042490799988  1.6175607500000000   F   F   F
  8.0053324999999997 10.9448042490799988  1.6175607500000000   F   F   F
  4.8031994999999998 10.9448042490799988  1.6175607500000000   F   F   F
 11.2074654999999996 10.9448042490799988  1.6175607500000000   F   F   F
 12.7148375884200000  9.7212295358359988 10.0096470878039998   T   T   T
  6.3105715884199993  9.7212295358359988 10.0096470878039998   T   T   T
  3.3038583611440000  9.7242964310180007 10.0079648246239987   T   T   T
  9.7081243611439998  9.7242964310180007 10.0079648246239987   T   T   T
 12.8084807658719999  6.4792754592280000  6.8570858884839998   T   T   T
  6.4042147658720001  6.4792754592280000  6.8570858884839998   T   T   T
  3.1996097191959998  6.4797283762379996  6.8568270787639998   T   T   T
  9.6038757191959991  6.4797283762379996  6.8568270787639998   T   T   T
  1.6008871805520000 11.7928201776320005 11.2797299077320012   T   T   T
  8.0051531805520000 11.7928201776320005 11.2797299077320012   T   T   T
  4.8043778849439995 11.6969829383159993 11.2293137742760010   T   T   T
 11.2086438849439993 11.6969829383159993 11.2293137742760010   T   T   T
  1.5996831785440000  8.4883506131579995  8.1046005008280009   T   T   T
  8.0039491785439996  8.4883506131579995  8.1046005008280009   T   T   T
  4.8034300535760002  8.4878071127460011  8.0302962302159990   T   T   T
 11.2076960535759991  8.4878071127460011  8.0302962302159990   T   T   T
 12.6221038167399993  9.5252717563380003 12.6087437009040002   T   T   T
  6.2178378167400004  9.5252717563380003 12.6087437009040002   T   T   T
  3.3978217518960001  9.5250647085620006 12.6054568174600004   T   T   T
  9.8020877518959999  9.5250647085620006 12.6054568174600004   T   T   T
  0.0101955914720000  6.5106820187500007  9.3507951836000007   T   T   T
  6.4144615914720005  6.5106820187500007  9.3507951836000007   T   T   T
  3.1890298717639998  6.5063340154540006  9.3503552070760012   T   T   T
  9.5932958717639991  6.5063340154540006  9.3503552070760012   T   T   T
  1.6027188006279998  7.7907807748420002 11.5424217735320003   T   T   T
  8.0069848006280004  7.7907807748420002 11.5424217735320003   T   T   T
  4.8045956299880004  7.6656592157079997 11.1921486984840008   T   T   T
 11.2088616299880002  7.6656592157079997 11.1921486984840008   T   T   T
  1.5979027925959999 10.9649137643240007  8.1099837430039994   T   T   T
  8.0021687925960006 10.9649137643240007  8.1099837430039994   T   T   T
  4.8034940962360002 10.9684335765160004  8.0311503022919997   T   T   T
 11.2077600962359991 10.9684335765160004  8.0311503022919997   T   T   T
  3.3023853799639995  6.4523204268900001 13.2212686652279992   T   T   T
  9.7066513799640006  6.4523204268900001 13.2212686652279992   T   T   T
 12.7064992340879996  6.4567201921299997 13.2215533559199994   T   T   T
  6.3022332340879998  6.4567201921299997 13.2215533559199994   T   T   T
  1.6109162611079999  9.8354034438140001 14.6455244353600005   T   T   T
  8.0151822611080004  9.8354034438140001 14.6455244353600005   T   T   T
 11.2232884266981561  3.3683607509960716 13.3455505298399650   T   T   T
