Ir  O Ir  O 
 1.0000000000000000
    12.8085319999999996    0.0000000000000000    0.0000000000000000
     0.0000000000000000    6.4702430000000000    0.0000000000000000
     0.0000000000000000    0.0000000000000000   25.8809719999999999
  16  32  16  34
Selective dynamics
Cartesian
  1.6010664999999999  3.2351215000000000  4.8526822500000000   F   F   F
  4.8031994999999998  3.2351215000000000  4.8526822500000000   F   F   F
  1.6010664999999999  0.0000000000000000  1.6175607500000000   F   F   F
  4.8031994999999998  0.0000000000000000  1.6175607500000000   F   F   F
  0.0000000000000000  3.2351215000000000  1.6175607500000000   F   F   F
  3.2021329999999999  3.2351215000000000  1.6175607500000000   F   F   F
  0.0000000000000000  0.0000000000000000  4.8526822500000000   F   F   F
  3.2021329999999999  0.0000000000000000  4.8526822500000000   F   F   F
  1.5999435404476618  3.2347235807947938 11.3732857008234873   T   T   T
  4.8044718312683239  3.2336947470221031 11.3703124725814604   T   T   T
  1.5977113297524332  0.0017802785081527  8.0738571187286610   T   T   T
  4.8068300849544183  0.0021516750653121  8.0829331394468191   T   T   T
 -0.0023018620966600  3.2368818196943674  8.1086053784937331   T   T   T
  3.1986222958129811  3.2366724259532753  8.1080570460794874   T   T   T
 -0.0191532605426000 -0.0015503887138012 11.2613328481759858   T   T   T
  3.2213689202025773 -0.0006327773661826 11.2686263216316380   T   T   T
  0.0000000000000000  3.2351215000000000  3.6132425009199376   F   F   F
  3.2021329999999999  3.2351215000000000  3.6132425009199376   F   F   F
  0.0000000000000000  0.0000000000000000  0.3781210009199379   F   F   F
  3.2021329999999999  0.0000000000000000  0.3781210009199379   F   F   F
  1.6010664999999999  5.2308032509199833  4.8526822500000000   F   F   F
  4.8031994999999998  5.2308032509199833  4.8526822500000000   F   F   F
  1.6010664999999999  1.9956817509199831  1.6175607500000000   F   F   F
  4.8031994999999998  1.9956817509199831  1.6175607500000000   F   F   F
  0.0000000000000000  3.2351215000000000  6.0921219990800619   F   F   F
  3.2021329999999999  3.2351215000000000  6.0921219990800619   F   F   F
  0.0000000000000000  0.0000000000000000  2.8570004990800624   F   F   F
  3.2021329999999999  0.0000000000000000  2.8570004990800624   F   F   F
  1.6010664999999999  1.2394397490800166  4.8526822500000000   F   F   F
  4.8031994999999998  1.2394397490800166  4.8526822500000000   F   F   F
  1.6010664999999999  4.4745612490800166  1.6175607500000000   F   F   F
  4.8031994999999998  4.4745612490800166  1.6175607500000000   F   F   F
 -0.0029476166736651  3.2339144914321936 10.1062572217309974   T   T   T
  3.2015214200459181  3.2343955725043014 10.1049039455037004   T   T   T
  0.0004433744115878  0.0030723179967037  6.8358793674918434   T   T   T
  3.1977896805439383  0.0026454852060910  6.8387064746352193   T   T   T
  1.6014459656439748  5.2440683604211209 11.3973103546649579   T   T   T
  4.8162454986147782  5.2384995450864151 11.4311647127717091   T   T   T
  1.5957288615961474  1.9962736638329064  8.1024835002639666   T   T   T
  4.7996297345586552  1.9960170952968657  8.0912033564475809   T   T   T
 -0.0064978895911777  3.2363005087618650 12.5580517142416692   T   T   T
  3.2055024687449105  3.2324095401166235 12.5596441116367803   T   T   T
 -0.0028150702169925  0.0014733527459393  9.3014105653625911   T   T   T
  3.1968612096436231  0.0000405547007642  9.3084979093330649   T   T   T
  1.6011012973119951  1.2243395926358531 11.3997451550918125   T   T   T
  4.8156628157169390  1.2285501447950129 11.4348992595237089   T   T   T
  1.5960276512494356  4.4771326519625356  8.1028071502823309   T   T   T
  4.7994751588522320  4.4785906424856075  8.0924392038054656   T   T   T
  8.0053324999999997  3.2351215000000000  4.8526822500000000   F   F   F
 11.2074654999999996  3.2351215000000000  4.8526822500000000   F   F   F
  8.0053324999999997  0.0000000000000000  1.6175607500000000   F   F   F
 11.2074654999999996  0.0000000000000000  1.6175607500000000   F   F   F
  6.4042659999999998  3.2351215000000000  1.6175607500000000   F   F   F
  9.6063989999999997  3.2351215000000000  1.6175607500000000   F   F   F
  6.4042659999999998  0.0000000000000000  4.8526822500000000   F   F   F
  9.6063989999999997  0.0000000000000000  4.8526822500000000   F   F   F
  8.0023179859091034  3.2319053045370318 11.2984568495648521   T   T   T
 11.2015875517812518  3.2323783457534039 11.3676345175647704   T   T   T
  8.0004967185725828  0.0018536587701681  8.1038464216348558   T   T   T
 11.1964559078520889  0.0021270788348657  8.0785753398950337   T   T   T
  6.3987050049200622  3.2368561069662132  8.0934746038399776   T   T   T
  9.6062323040054434  3.2366692394439180  8.0941253119694476   T   T   T
  6.4521932682405909 -0.0029871916660404 11.3839494179172025   T   T   T
  9.5550414803428136 -0.0031465979051017 11.3790800613783656   T   T   T
  6.4042659999999998  3.2351215000000000  3.6132425009199376   F   F   F
  9.6063989999999997  3.2351215000000000  3.6132425009199376   F   F   F
  6.4042659999999998  0.0000000000000000  0.3781210009199379   F   F   F
  9.6063989999999997  0.0000000000000000  0.3781210009199379   F   F   F
  8.0053324999999997  5.2308032509199833  4.8526822500000000   F   F   F
 11.2074654999999996  5.2308032509199833  4.8526822500000000   F   F   F
  8.0053324999999997  1.9956817509199831  1.6175607500000000   F   F   F
 11.2074654999999996  1.9956817509199831  1.6175607500000000   F   F   F
  6.4042659999999998  3.2351215000000000  6.0921219990800619   F   F   F
  9.6063989999999997  3.2351215000000000  6.0921219990800619   F   F   F
  6.4042659999999998  0.0000000000000000  2.8570004990800624   F   F   F
  9.6063989999999997  0.0000000000000000  2.8570004990800624   F   F   F
  8.0053324999999997  1.2394397490800166  4.8526822500000000   F   F   F
 11.2074654999999996  1.2394397490800166  4.8526822500000000   F   F   F
  8.0053324999999997  4.4745612490800166  1.6175607500000000   F   F   F
 11.2074654999999996  4.4745612490800166  1.6175607500000000   F   F   F
  6.3812182925960466  3.2331749201558306 10.0745021446896423   T   T   T
  9.6208045510285505  3.2300169603264290 10.0747157593946302   T   T   T
  6.4062770012485704 -0.0000679648470893  6.8528761883977971   T   T   T
  9.5977266168340201 -0.0005811231837308  6.8491552057856975   T   T   T
  8.0026011562840615  5.2117806593247877 11.1441303455132878   T   T   T
 11.1928180855566559  5.2374940513463324 11.4176997302212833   T   T   T
  8.0005556447853365  1.9942165610077422  8.0863006809244293   T   T   T
 11.2076956488146315  1.9958657398394204  8.0893790663176919   T   T   T
  6.4352785283779550  3.2331762572271727 12.5121124608046674   T   T   T
  9.5712656972217758  3.2342279573747734 12.5097142818203597   T   T   T
  6.3622863638999005  0.0070085533811540  9.3359831766865451   T   T   T
  9.6383561730883365  0.0045666310988289  9.3325077020202727   T   T   T
  8.0020492440607285  1.2525025004571515 11.1554573884833577   T   T   T
 11.1936467424847432  1.2283901848674774 11.4239347810482226   T   T   T
  7.9996416372232551  4.4790373607056813  8.0895664679613226   T   T   T
 11.2075858161704875  4.4788747227726642  8.0920793282186718   T   T   T
  9.0000295922002262 -0.0119511122868849 13.2137487899549591   T   T   T
  7.0102902491024812 -0.0152309788427899 13.2154993893794277   T   T   T
