Ir  O Ir  O 
 1.0000000000000000
    12.8085319999999996    0.0000000000000000    0.0000000000000000
     0.0000000000000000    6.4702430000000000    0.0000000000000000
     0.0000000000000000    0.0000000000000000   25.8809719999999999
Ir  O Ir  O
  15  32  15  33
Selective dynamics
Cartesian
  1.6010664999999999  3.2351215000000000  4.8526822500000000   F   F   F
  4.8031994999999998  3.2351215000000000  4.8526822500000000   F   F   F
  1.6010664999999999  0.0000000000000000  1.6175607500000000   F   F   F
  4.8031994999999998  0.0000000000000000  1.6175607500000000   F   F   F
  0.0000000000000000  3.2351215000000000  1.6175607500000000   F   F   F
  3.2021329999999999  3.2351215000000000  1.6175607500000000   F   F   F
  0.0000000000000000  0.0000000000000000  4.8526822500000000   F   F   F
  3.2021329999999999  0.0000000000000000  4.8526822500000000   F   F   F
  1.6276886026707704  3.2351215000000000 11.4445919841902608   F   F   F
  1.5941125388810966  0.0000000000000000  8.0745487291303188   F   F   F
  4.8074740792768704  0.0000000000000000  8.0748854248648989   F   F   F
  0.0210610469015682  3.2351215000000000  8.1211857008300701   F   F   F
  3.1864521652508571  3.2351215000000000  8.1117475204323881   F   F   F
 12.7657894130064200  0.0000000000000000 11.2671979417179973   F   F   F
  3.2873460096562375  0.0000000000000000 11.2681013505690473   F   F   F
  0.0000000000000000  3.2351215000000000  3.6132425009199376   F   F   F
  3.2021329999999999  3.2351215000000000  3.6132425009199376   F   F   F
  0.0000000000000000  0.0000000000000000  0.3781210009199379   F   F   F
  3.2021329999999999  0.0000000000000000  0.3781210009199379   F   F   F
  1.6010664999999999  5.2308032509199833  4.8526822500000000   F   F   F
  4.8031994999999998  5.2308032509199833  4.8526822500000000   F   F   F
  1.6010664999999999  1.9956817509199831  1.6175607500000000   F   F   F
  4.8031994999999998  1.9956817509199831  1.6175607500000000   F   F   F
  0.0000000000000000  3.2351215000000000  6.0921219990800619   F   F   F
  3.2021329999999999  3.2351215000000000  6.0921219990800619   F   F   F
  0.0000000000000000  0.0000000000000000  2.8570004990800624   F   F   F
  3.2021329999999999  0.0000000000000000  2.8570004990800624   F   F   F
  1.6010664999999999  1.2394397490800166  4.8526822500000000   F   F   F
  4.8031994999999998  1.2394397490800166  4.8526822500000000   F   F   F
  1.6010664999999999  4.4745612490800166  1.6175607500000000   F   F   F
  4.8031994999999998  4.4745612490800166  1.6175607500000000   F   F   F
  0.2129218056643101  3.2351215000000000  9.9993352548469066   F   F   F
  3.0156303509381326  3.2351215000000000  9.9964636331768215   F   F   F
 12.7940185947675662  0.0000000000000000  6.8498854658103898   F   F   F
  3.2027478618397707  0.0000000000000000  6.8425862944976243   F   F   F
  1.6271430977417503  5.2713143048197111 11.4520548702379816   F   F   F
  4.8187335748314810  5.3001663938046022 11.4511337761656549   F   F   F
  1.6005923195237348  1.9956708018424316  8.0018259079907814   F   F   F
  4.8105965307711127  2.0007417434480645  8.1184597143865069   F   F   F
  0.2408980504575201  3.2351215000000000 12.5643399798144255   F   F   F
  2.9912793498145467  3.2351215000000000 12.5893056243217565   F   F   F
 -0.0089817887871527  0.0000000000000000  9.3212225851770452   F   F   F
  3.2032488401547998  0.0000000000000000  9.3166579811544814   F   F   F
  1.6271430977417503  1.1989286951802904 11.4520548702379816   F   F   F
  4.8187335748314810  1.1700766061953516 11.4511337761656549   F   F   F
  1.6005923195237348  4.4745721981575706  8.0018259079907814   F   F   F
  4.8105965307711127  4.4695012565519345  8.1184597143865069   F   F   F
  8.0053324999999997  3.2351215000000000  4.8526822500000000   F   F   F
 11.2074654999999996  3.2351215000000000  4.8526822500000000   F   F   F
  8.0053324999999997  0.0000000000000000  1.6175607500000000   F   F   F
 11.2074654999999996  0.0000000000000000  1.6175607500000000   F   F   F
  6.4042659999999998  3.2351215000000000  1.6175607500000000   F   F   F
  9.6063989999999997  3.2351215000000000  1.6175607500000000   F   F   F
  6.4042659999999998  0.0000000000000000  4.8526822500000000   F   F   F
  9.6063989999999997  0.0000000000000000  4.8526822500000000   F   F   F
  8.0171780939127970  3.2351215000000000 11.4329394217000075   F   F   F
  8.0283586389294452  0.0000000000000000  8.1012812598210573   F   F   F
 11.1817800760996526  0.0000000000000000  8.1138150319427833   F   F   F
  6.4277374486944874  3.2351215000000000  8.1207818532286122   F   F   F
  9.5886476308104918  3.2351215000000000  8.1155137853572654   F   F   F
  6.3690914666347567  0.0000000000000000 11.2636300675606762   F   F   F
  9.7035269337554535  0.0000000000000000 11.5965501112117195   F   F   F
  6.4042659999999998  3.2351215000000000  3.6132425009199376   F   F   F
  9.6063989999999997  3.2351215000000000  3.6132425009199376   F   F   F
  6.4042659999999998  0.0000000000000000  0.3781210009199379   F   F   F
  9.6063989999999997  0.0000000000000000  0.3781210009199379   F   F   F
  8.0053324999999997  5.2308032509199833  4.8526822500000000   F   F   F
 11.2074654999999996  5.2308032509199833  4.8526822500000000   F   F   F
  8.0053324999999997  1.9956817509199831  1.6175607500000000   F   F   F
 11.2074654999999996  1.9956817509199831  1.6175607500000000   F   F   F
  6.4042659999999998  3.2351215000000000  6.0921219990800619   F   F   F
  9.6063989999999997  3.2351215000000000  6.0921219990800619   F   F   F
  6.4042659999999998  0.0000000000000000  2.8570004990800624   F   F   F
  9.6063989999999997  0.0000000000000000  2.8570004990800624   F   F   F
  8.0053324999999997  1.2394397490800166  4.8526822500000000   F   F   F
 11.2074654999999996  1.2394397490800166  4.8526822500000000   F   F   F
  8.0053324999999997  4.4745612490800166  1.6175607500000000   F   F   F
 11.2074654999999996  4.4745612490800166  1.6175607500000000   F   F   F
  6.5956134903831254  3.2351215000000000 10.0038215120035172   F   F   F
  9.3887941256740248  3.2351215000000000  9.9929691628525710   F   F   F
  6.4137415701890426  0.0000000000000000  6.8497795885677615   F   F   F
  9.6092073417705492  0.0000000000000000  6.8513888993966816   F   F   F
  8.0116150378352433  5.2621509154531525 11.4215529082092004   F   F   F
 11.2063696606979377  5.2842842415212976 11.3499772816915403   F   F   F
  8.0093927464503700  1.9913520757462311  8.0056818883482705   F   F   F
 11.2032555822392172  1.9985494215812454  8.1360438738241712   F   F   F
  6.6562438621316007  3.2351215000000000 12.5797258707159543   F   F   F
  9.3916662343161370  3.2351215000000000 12.5762337676975395   F   F   F
  6.3991122201327970  0.0000000000000000  9.3175186305591797   F   F   F
  9.5958874569550101  0.0000000000000000  9.3735150582359363   F   F   F
  8.0116150378352433  1.2080920845468459 11.4215529082092004   F   F   F
 11.2063696606979377  1.1859587584787026 11.3499772816915403   F   F   F
  8.0093927464503700  4.4788909242537693  8.0056818883482705   F   F   F
 11.2032555822392172  4.4716935784187557  8.1360438738241712   F   F   F
  9.6130788464306569  0.0000000000000000 13.3592268964524283   T   T   T
