Ir  O Ir  O 
 1.0000000000000000
    12.8085319999999996    0.0000000000000000    0.0000000000000000
     0.0000000000000000    6.4702430000000000    0.0000000000000000
     0.0000000000000000    0.0000000000000000   25.8809719999999999
  16  34  16  34
Selective dynamics
Cartesian
  1.6010664999999999  3.2351215000000000  4.8526822500000000   F   F   F
  4.8031994999999998  3.2351215000000000  4.8526822500000000   F   F   F
  1.6010664999999999  0.0000000000000000  1.6175607500000000   F   F   F
  4.8031994999999998  0.0000000000000000  1.6175607500000000   F   F   F
  0.0000000000000000  3.2351215000000000  1.6175607500000000   F   F   F
  3.2021329999999999  3.2351215000000000  1.6175607500000000   F   F   F
  0.0000000000000000  0.0000000000000000  4.8526822500000000   F   F   F
  3.2021329999999999  0.0000000000000000  4.8526822500000000   F   F   F
  1.6015570219852757  3.2394019088249131 11.3392170050125785   T   T   T
  4.8037045936706404  3.2387023420643222 11.3569040844926157   T   T   T
  1.6001219065291437  0.0004163097770316  8.1092362326089624   T   T   T
  4.7848453619127538  0.0008644073416617  8.0894007130083665   T   T   T
  0.0031945829417679  3.2356300606340826  8.1011672379924100   T   T   T
  3.1995416692320711  3.2359531186183066  8.1018520662387274   T   T   T
 -0.0198000279350673  0.0044544841140673 11.4540266514667461   T   T   T
  3.2182809993574684  0.0039526952616863 11.4553349188255869   T   T   T
  0.0000000000000000  3.2351215000000000  3.6132425009199376   F   F   F
  3.2021329999999999  3.2351215000000000  3.6132425009199376   F   F   F
  0.0000000000000000  0.0000000000000000  0.3781210009199379   F   F   F
  3.2021329999999999  0.0000000000000000  0.3781210009199379   F   F   F
  1.6010664999999999  5.2308032509199833  4.8526822500000000   F   F   F
  4.8031994999999998  5.2308032509199833  4.8526822500000000   F   F   F
  1.6010664999999999  1.9956817509199831  1.6175607500000000   F   F   F
  4.8031994999999998  1.9956817509199831  1.6175607500000000   F   F   F
  0.0000000000000000  3.2351215000000000  6.0921219990800619   F   F   F
  3.2021329999999999  3.2351215000000000  6.0921219990800619   F   F   F
  0.0000000000000000  0.0000000000000000  2.8570004990800624   F   F   F
  3.2021329999999999  0.0000000000000000  2.8570004990800624   F   F   F
  1.6010664999999999  1.2394397490800166  4.8526822500000000   F   F   F
  4.8031994999999998  1.2394397490800166  4.8526822500000000   F   F   F
  1.6010664999999999  4.4745612490800166  1.6175607500000000   F   F   F
  4.8031994999999998  4.4745612490800166  1.6175607500000000   F   F   F
 -0.0018708719985699  3.2388047956250543 10.0899275467042280   T   T   T
  3.2067220056432322  3.2381067582523024 10.0899091404560082   T   T   T
  0.0099359918338199  0.0002407891796930  6.8518443505513318   T   T   T
  3.1907221284513785  0.0007218270683563  6.8518967924545811   T   T   T
  1.5994352531737179  5.2417640895371100 11.2959512763644163   T   T   T
  4.8394257700732641  5.2362591693921390 11.3990491131524774   T   T   T
  1.5991410630556055  1.9906848268179502  8.1003484530510708   T   T   T
  4.7967988773461387  1.9922148856849213  8.0834329181840818   T   T   T
  0.0062994323573737  3.2392139193684710 12.5236427081527602   T   T   T
  3.1961199225360515  3.2386293106589443 12.5273680752760797   T   T   T
 -0.0083681689830986 -0.0006770715490636  9.3566756465501459   T   T   T
  3.2086782709377490  0.0000048344355662  9.3582905203982136   T   T   T
  1.5996176571711209  1.2367965568138075 11.2899521240816583   T   T   T
  4.8393439567579692  1.2416244671357475 11.3966268488621836   T   T   T
  1.5993813628781746  4.4807004438689653  8.0989933971245502   T   T   T
  4.7968519777059004  4.4798274917195258  8.0816473760826515   T   T   T
  3.1637995909023737  0.0071587977641192 13.2489901482246406   T   T   T
  0.0440531827928356  0.0108337112785428 13.2481682098011877   T   T   T
  8.0053324999999997  3.2351215000000000  4.8526822500000000   F   F   F
 11.2074654999999996  3.2351215000000000  4.8526822500000000   F   F   F
  8.0053324999999997  0.0000000000000000  1.6175607500000000   F   F   F
 11.2074654999999996  0.0000000000000000  1.6175607500000000   F   F   F
  6.4042659999999998  3.2351215000000000  1.6175607500000000   F   F   F
  9.6063989999999997  3.2351215000000000  1.6175607500000000   F   F   F
  6.4042659999999998  0.0000000000000000  4.8526822500000000   F   F   F
  9.6063989999999997  0.0000000000000000  4.8526822500000000   F   F   F
  8.0037183998278287  3.2392232817198687 11.2932515595384633   T   T   T
 11.2060408795661246  3.2402231273838824 11.3557885185634806   T   T   T
  8.0064231207819496  0.0007398023201272  8.0983438826853700   T   T   T
 11.2229729693841360 -0.0000388413347215  8.0880990917120243   T   T   T
  6.3988144542612480  3.2359790145526266  8.0912173834445191   T   T   T
  9.6120903895038694  3.2358666440122659  8.0913996186360091   T   T   T
  6.4639708222235202  0.0047285211023768 11.3264440221316693   T   T   T
  9.5433814682829787  0.0057649591539006 11.3422809994964187   T   T   T
  6.4042659999999998  3.2351215000000000  3.6132425009199376   F   F   F
  9.6063989999999997  3.2351215000000000  3.6132425009199376   F   F   F
  6.4042659999999998  0.0000000000000000  0.3781210009199379   F   F   F
  9.6063989999999997  0.0000000000000000  0.3781210009199379   F   F   F
  8.0053324999999997  5.2308032509199833  4.8526822500000000   F   F   F
 11.2074654999999996  5.2308032509199833  4.8526822500000000   F   F   F
  8.0053324999999997  1.9956817509199831  1.6175607500000000   F   F   F
 11.2074654999999996  1.9956817509199831  1.6175607500000000   F   F   F
  6.4042659999999998  3.2351215000000000  6.0921219990800619   F   F   F
  9.6063989999999997  3.2351215000000000  6.0921219990800619   F   F   F
  6.4042659999999998  0.0000000000000000  2.8570004990800624   F   F   F
  9.6063989999999997  0.0000000000000000  2.8570004990800624   F   F   F
  8.0053324999999997  1.2394397490800166  4.8526822500000000   F   F   F
 11.2074654999999996  1.2394397490800166  4.8526822500000000   F   F   F
  8.0053324999999997  4.4745612490800166  1.6175607500000000   F   F   F
 11.2074654999999996  4.4745612490800166  1.6175607500000000   F   F   F
  6.3832009654759698  3.2372717417435433 10.0693753986430536   T   T   T
  9.6270997880331777  3.2397516983564376 10.0699339355984030   T   T   T
  6.4038801705163291  0.0008166458904063  6.8555689391579948   T   T   T
  9.6041648790126217  0.0008641478578051  6.8522211923708367   T   T   T
  8.0015654350647498  5.2071494452346503 11.1493844953028702   T   T   T
 11.1712815208044169  5.2375912933007376 11.3955755442510682   T   T   T
  8.0033814278325757  1.9950810955594365  8.0873399301463529   T   T   T
 11.2167894096367871  1.9920523447805407  8.0807769794276609   T   T   T
  6.4288692980631339  3.2376817530029220 12.5056931541660479   T   T   T
  9.5776764064942057  3.2348269648268837 12.5057183166854369   T   T   T
  6.3589118132567579 -0.0016669996769510  9.3212030848623932   T   T   T
  9.6489768365094513 -0.0012646771428844  9.3216590325985287   T   T   T
  7.9991852253300904  1.2720566009948506 11.1495410100759713   T   T   T
 11.1718782358824669  1.2421656890984911 11.3873497182162868   T   T   T
  8.0031799725405559  4.4768226539101175  8.0850274234499082   T   T   T
 11.2169410347595377  4.4787027289211130  8.0792773018305351   T   T   T
  8.9896188511533790  0.0523953672795465 13.2347198870250065   T   T   T
  7.6047235459729272 -0.1641764637455521 13.4165427401099073   T   T   T
