Ir  O Ir  O
 1.0000000000000000
  12.8085319999999996   0.0000000000000000   0.0000000000000000
   0.0000000000000000   6.4702430000000000   0.0000000000000000
   0.0000000000000000   0.0000000000000000  25.8809719999999999
Ir  O Ir  O
16  34  16  34  
Selective dynamics
Direct
  0.1250000000000000  0.5000000000000000  0.1875000000000000 F F F
  0.3750000000000000  0.5000000000000000  0.1875000000000000 F F F
  0.1250000000000000  0.0000000000000000  0.0625000000000000 F F F
  0.3750000000000000  0.0000000000000000  0.0625000000000000 F F F
  0.0000000000000000  0.5000000000000000  0.0625000000000000 F F F
  0.2500000000000000  0.5000000000000000  0.0625000000000000 F F F
  0.0000000000000000  0.0000000000000000  0.1875000000000000 F F F
  0.2500000000000000  0.0000000000000000  0.1875000000000000 F F F
  0.1249134484216440  0.5000000000000000  0.4381363826231420 T T T
  0.3747384416690590  0.5000000000000000  0.4385772989731580 T T T
  0.1247985334635830  0.0000000000000000  0.3132832955635290 T T T
  0.3731963973112190  0.0000000000000000  0.3126453728321510 T T T
  0.0000349640759651  0.5000000000000000  0.3130188428228850 T T T
  0.2496893700320230  0.5000000000000000  0.3129861675233490 T T T
  0.9999277567475030  0.0000000000000000  0.4424637600172550 T T T
  0.2498261804292030  0.0000000000000000  0.4424534149014150 T T T
  0.0000000000000000  0.5000000000000000  0.1396099999999980 F F F
  0.2500000000000000  0.5000000000000000  0.1396099999999980 F F F
  0.0000000000000000  0.0000000000000000  0.0146099999999976 F F F
  0.2500000000000000  0.0000000000000000  0.0146099999999976 F F F
  0.1250000000000000  0.8084399999999970  0.1875000000000000 F F F
  0.3750000000000000  0.8084399999999970  0.1875000000000000 F F F
  0.1250000000000000  0.3084399999999970  0.0625000000000000 F F F
  0.3750000000000000  0.3084399999999970  0.0625000000000000 F F F
  0.0000000000000000  0.5000000000000000  0.2353900000000020 F F F
  0.2500000000000000  0.5000000000000000  0.2353900000000020 F F F
  0.0000000000000000  0.0000000000000000  0.1103900000000020 F F F
  0.2500000000000000  0.0000000000000000  0.1103900000000020 F F F
  0.1250000000000000  0.1915600000000030  0.1875000000000000 F F F
  0.3750000000000000  0.1915600000000030  0.1875000000000000 F F F
  0.1250000000000000  0.6915600000000030  0.0625000000000000 F F F
  0.3750000000000000  0.6915600000000030  0.0625000000000000 F F F
  0.9998788756779360  0.5000000000000000  0.3898372439117920 T T T
  0.2498195387174390  0.5000000000000000  0.3897158000028180 T T T
  0.0002657262532395  0.0000000000000000  0.2648049458828720 T T T
  0.2495038487350950  0.0000000000000000  0.2647601275885450 T T T
  0.1248000429791670  0.8089153442285170  0.4365633004101640 T T T
  0.3757487580034750  0.8085191129643760  0.4388845188304270 T T T
  0.1246489815755750  0.3076688930041770  0.3129061569842690 T T T
  0.3745500595902840  0.3081301281977600  0.3128127324622340 T T T
  0.0005416489665677  0.5000000000000000  0.4839241844573220 T T T
  0.2494729519466650  0.5000000000000000  0.4839829313967390 T T T
  0.9995382740287720  0.0000000000000000  0.3614703265069820 T T T
  0.2501173986964960  0.0000000000000000  0.3614733965851120 T T T
  0.1248000429791670  0.1910846557714830  0.4365633004101640 T T T
  0.3757487580034750  0.1914808870356240  0.4388845188304270 T T T
  0.1246489815755750  0.6923311069958230  0.3129061569842690 T T T
  0.3745500595902840  0.6918698718022400  0.3128127324622340 T T T
  0.2483326090777420  0.0000000000000000  0.5119567367568220 T T T
  0.0028806040875722  0.0000000000000000  0.5119026774644410 T T T
  0.6250000000000000  0.5000000000000000  0.1875000000000000 F F F
  0.8750000000000000  0.5000000000000000  0.1875000000000000 F F F
  0.6250000000000000  0.0000000000000000  0.0625000000000000 F F F
  0.8750000000000000  0.0000000000000000  0.0625000000000000 F F F
  0.5000000000000000  0.5000000000000000  0.0625000000000000 F F F
  0.7500000000000000  0.5000000000000000  0.0625000000000000 F F F
  0.5000000000000000  0.0000000000000000  0.1875000000000000 F F F
  0.7500000000000000  0.0000000000000000  0.1875000000000000 F F F
  0.6248900156723280  0.5000000000000000  0.4389713129819130 T T T
  0.8750161588833830  0.5000000000000000  0.4386939671824310 T T T
  0.6249128230960610  0.0000000000000000  0.3117171462262150 T T T
  0.8766477724913460  0.0000000000000000  0.3126882579981900 T T T
  0.4996591435089710  0.5000000000000000  0.3130282819578700 T T T
  0.7500516697724250  0.5000000000000000  0.3130625305632440 T T T
  0.4999913589098380  0.0000000000000000  0.4345081625643700 T T T
  0.7498100520508471  0.0000000000000000  0.4346829982599730 T T T
  0.5000000000000000  0.5000000000000000  0.1396099999999980 F F F
  0.7500000000000000  0.5000000000000000  0.1396099999999980 F F F
  0.5000000000000000  0.0000000000000000  0.0146099999999976 F F F
  0.7500000000000000  0.0000000000000000  0.0146099999999976 F F F
  0.6250000000000000  0.8084399999999970  0.1875000000000000 F F F
  0.8750000000000000  0.8084399999999970  0.1875000000000000 F F F
  0.6250000000000000  0.3084399999999970  0.0625000000000000 F F F
  0.8750000000000000  0.3084399999999970  0.0625000000000000 F F F
  0.5000000000000000  0.5000000000000000  0.2353900000000020 F F F
  0.7500000000000000  0.5000000000000000  0.2353900000000020 F F F
  0.5000000000000000  0.0000000000000000  0.1103900000000020 F F F
  0.7500000000000000  0.0000000000000000  0.1103900000000020 F F F
  0.6250000000000000  0.1915600000000030  0.1875000000000000 F F F
  0.8750000000000000  0.1915600000000030  0.1875000000000000 F F F
  0.6250000000000000  0.6915600000000030  0.0625000000000000 F F F
  0.8750000000000000  0.6915600000000030  0.0625000000000000 F F F
  0.4999574282989270  0.5000000000000000  0.3899972254108730 T T T
  0.7498954672086739  0.5000000000000000  0.3900252653340460 T T T
  0.4993780516013620  0.0000000000000000  0.2643354395763070 T T T
  0.7505084203210760  0.0000000000000000  0.2643894704731410 T T T
  0.6248349379128439  0.8098794840585410  0.4400172352053390 T T T
  0.8739824615624270  0.8085887462410430  0.4394255792204260 T T T
  0.6247448804178430  0.3084231508704530  0.3125355491089790 T T T
  0.8753918536251530  0.3080233118893930  0.3128119823982300 T T T
  0.4996149741472070  0.5000000000000000  0.4847704236702770 T T T
  0.7501066871875890  0.5000000000000000  0.4847972824720300 T T T
  0.4997929008337180  0.0000000000000000  0.3591846002686910 T T T
  0.7499830976256590  0.0000000000000000  0.3593117669201220 T T T
  0.6248349379128439  0.1901205159414590  0.4400172352053390 T T T
  0.8739824615624270  0.1914112537589570  0.4394255792204260 T T T
  0.6247448804178430  0.6915768491295470  0.3125355491089790 T T T
  0.8753918536251530  0.6919766881106070  0.3128119823982300 T T T
  0.6735777168000040  0.0000000000000000  0.7390361300378741 T T T
  0.5767957614108919  0.0000000000000000  0.7388971404038500 T T T
