Ir  O Ir  O                             
   1.00000000000000     
    12.8085317611999994    0.0000000000000000    0.0000000000000000
     0.0000000000000000   12.9404859999999999    0.0000000000000000
     0.0000000000000000    0.0000000000000000   25.8809719085999994
   Ir   O    Ir   O 
    32    68    32    70
Selective dynamics
Direct
  0.1250000000000000  0.2499999991151824  0.1875000000000000   F   F   F
  0.6250000000000000  0.2499999991151824  0.1875000000000000   F   F   F
  0.3750000000000000  0.2499999991151824  0.1875000000000000   F   F   F
  0.8750000000000000  0.2499999991151824  0.1875000000000000   F   F   F
  0.1250000000000000  0.0000000000000000  0.0625000000000000   F   F   F
  0.6250000000000000  0.0000000000000000  0.0625000000000000   F   F   F
  0.3750000000000000  0.0000000000000000  0.0625000000000000   F   F   F
  0.8750000000000000  0.0000000000000000  0.0625000000000000   F   F   F
  0.0000000000000000  0.2499999991151824  0.0625000000000000   F   F   F
  0.5000000000000000  0.2499999991151824  0.0625000000000000   F   F   F
  0.2500000000000000  0.2499999991151824  0.0625000000000000   F   F   F
  0.7500000000000000  0.2499999991151824  0.0625000000000000   F   F   F
  0.0000000000000000  0.0000000000000000  0.1875000000000000   F   F   F
  0.5000000000000000  0.0000000000000000  0.1875000000000000   F   F   F
  0.2500000000000000  0.0000000000000000  0.1875000000000000   F   F   F
  0.7500000000000000  0.0000000000000000  0.1875000000000000   F   F   F
  0.1248408454840437  0.2497211879797147  0.4380622436181835   T   T   T
  0.6248415591515577  0.2496624869009244  0.4379839347108576   T   T   T
  0.3748575573307137  0.2477877970386660  0.4374733594972465   T   T   T
  0.8749232242649038  0.2477288406839454  0.4375201916059736   T   T   T
  0.1248868284156225  0.9997911865928559  0.3127925332331609   T   T   T
  0.6248963195433750  0.9998101209000685  0.3128135007014194   T   T   T
  0.3749826985122764  0.0005960814296863  0.3126391304808925   T   T   T
  0.8749360635774931  0.0004861037401400  0.3126674381619303   T   T   T
  0.0000372624377368  0.2499970407187538  0.3128869765300019   T   T   T
  0.5000285494102473  0.2500598723178974  0.3128575208037507   T   T   T
  0.2499008482718140  0.2500374436819070  0.3128851664634870   T   T   T
  0.7499021095050473  0.2499711452619571  0.3128863810867286   T   T   T
  0.0026284172084213  0.9987674450298698  0.4410567586850427   T   T   T
  0.5025726950935370  0.9989686142306390  0.4411398737049725   T   T   T
  0.2480430718941532  0.9990110148209257  0.4410013815676710   T   T   T
  0.7480880430950901  0.9989919913003928  0.4411830107297877   T   T   T
  0.0000000000000000  0.2499999991151824  0.1396100070000017   F   F   F
  0.5000000000000000  0.2499999991151824  0.1396100070000017   F   F   F
  0.2500000000000000  0.2499999991151824  0.1396100070000017   F   F   F
  0.7500000000000000  0.2499999991151824  0.1396100070000017   F   F   F
  0.0000000000000000  0.0000000000000000  0.0146099999999976   F   F   F
  0.5000000000000000  0.0000000000000000  0.0146099999999976   F   F   F
  0.2500000000000000  0.0000000000000000  0.0146099999999976   F   F   F
  0.7500000000000000  0.0000000000000000  0.0146099999999976   F   F   F
  0.1250000000000000  0.4042200135693506  0.1875000000000000   F   F   F
  0.6250000000000000  0.4042200135693506  0.1875000000000000   F   F   F
  0.3750000000000000  0.4042200135693506  0.1875000000000000   F   F   F
  0.8750000000000000  0.4042200135693506  0.1875000000000000   F   F   F
  0.1250000000000000  0.1542199994541704  0.0625000000000000   F   F   F
  0.6250000000000000  0.1542199994541704  0.0625000000000000   F   F   F
  0.3750000000000000  0.1542199994541704  0.0625000000000000   F   F   F
  0.8750000000000000  0.1542199994541704  0.0625000000000000   F   F   F
  0.0000000000000000  0.2499999991151824  0.2353899929999983   F   F   F
  0.5000000000000000  0.2499999991151824  0.2353899929999983   F   F   F
  0.2500000000000000  0.2499999991151824  0.2353899929999983   F   F   F
  0.7500000000000000  0.2499999991151824  0.2353899929999983   F   F   F
  0.0000000000000000  0.0000000000000000  0.1103900000000024   F   F   F
  0.5000000000000000  0.0000000000000000  0.1103900000000024   F   F   F
  0.2500000000000000  0.0000000000000000  0.1103900000000024   F   F   F
  0.7500000000000000  0.0000000000000000  0.1103900000000024   F   F   F
  0.1250000000000000  0.0957799996610120  0.1875000000000000   F   F   F
  0.6250000000000000  0.0957799996610120  0.1875000000000000   F   F   F
  0.3750000000000000  0.0957799996610120  0.1875000000000000   F   F   F
  0.8750000000000000  0.0957799996610120  0.1875000000000000   F   F   F
  0.1250000000000000  0.3457799837761897  0.0625000000000000   F   F   F
  0.6250000000000000  0.3457799837761897  0.0625000000000000   F   F   F
  0.3750000000000000  0.3457799837761897  0.0625000000000000   F   F   F
  0.8750000000000000  0.3457799837761897  0.0625000000000000   F   F   F
  0.0000138902434918  0.2491943383479258  0.3893577402875533   T   T   T
  0.5000250847723920  0.2491894070647314  0.3892870514609253   T   T   T
  0.2498024610001025  0.2491055789518383  0.3893814810574744   T   T   T
  0.7498396504887826  0.2490250925229677  0.3893686963236564   T   T   T
  0.9999880435422807  0.0000661114139540  0.2648799374646080   T   T   T
  0.5000018378500728  0.0000556712387045  0.2648842616762874   T   T   T
  0.2498490552639097  0.0001669417670864  0.2647753147152661   T   T   T
  0.7498645244953371  0.0001040328700766  0.2647786041836103   T   T   T
  0.1241895715740721  0.4040112402851113  0.4382122492372010   T   T   T
  0.6242555857406125  0.4039394875235925  0.4377530013084692   T   T   T
  0.3743962496740771  0.4023743294983372  0.4340148396508405   T   T   T
  0.8745438724284061  0.4024405138611589  0.4342451902427996   T   T   T
  0.1248262195492741  0.1540559432367283  0.3122581617363460   T   T   T
  0.6247860697286768  0.1540534993300836  0.3122893282803555   T   T   T
  0.3751888131823245  0.1543599076509612  0.3124959103983920   T   T   T
  0.8751975651517957  0.1542427980192500  0.3125357146543566   T   T   T
  0.9990545769771195  0.2487307277489279  0.4832367436811544   T   T   T
  0.4991225895462759  0.2488044013394428  0.4831699113936896   T   T   T
  0.2507687597639939  0.2492044452795837  0.4832505199024923   T   T   T
  0.7507046452386988  0.2491841736665589  0.4832405156393926   T   T   T
  0.9998552165718969  0.0005070130134167  0.3607567877243703   T   T   T
  0.4998887846406810  0.0005028241835327  0.3607858606591586   T   T   T
  0.2501406140298781  0.0007900275826827  0.3606646619036196   T   T   T
  0.7500718617775964  0.0007273548716166  0.3607223527019010   T   T   T
  0.1250850275457770  0.0958136704964812  0.4364344848371894   T   T   T
  0.6251197919348610  0.0957668932796183  0.4365701549013394   T   T   T
  0.3753192503991911  0.0943522747119953  0.4355099056565033   T   T   T
  0.8754846070165816  0.0941752170136631  0.4356374939111655   T   T   T
  0.1247287815802702  0.3460044523444424  0.3128189048733855   T   T   T
  0.6247439482630436  0.3460250226308469  0.3128176906850619   T   T   T
  0.3751213659082887  0.3458619245153990  0.3129402516928755   T   T   T
  0.8751114933780659  0.3457524474345762  0.3129860075891381   T   T   T
  0.2520892867476873  0.9991237306814978  0.5100131600983647   T   T   T
  0.7525238050516618  0.9990220294176256  0.5102101186330651   T   T   T
  0.9986978235665244  0.9980616735972455  0.5100905659009933   T   T   T
  0.4983122966815933  0.9992355694333650  0.5101540269686203   T   T   T
  0.1250000000000000  0.7499999973455402  0.1875000000000000   F   F   F
  0.6250000000000000  0.7499999973455402  0.1875000000000000   F   F   F
  0.3750000000000000  0.7499999973455402  0.1875000000000000   F   F   F
  0.8750000000000000  0.7499999973455402  0.1875000000000000   F   F   F
  0.1250000000000000  0.4999999982303578  0.0625000000000000   F   F   F
  0.6250000000000000  0.4999999982303578  0.0625000000000000   F   F   F
  0.3750000000000000  0.4999999982303578  0.0625000000000000   F   F   F
  0.8750000000000000  0.4999999982303578  0.0625000000000000   F   F   F
  0.0000000000000000  0.7499999973455402  0.0625000000000000   F   F   F
  0.5000000000000000  0.7499999973455402  0.0625000000000000   F   F   F
  0.2500000000000000  0.7499999973455402  0.0625000000000000   F   F   F
  0.7500000000000000  0.7499999973455402  0.0625000000000000   F   F   F
  0.0000000000000000  0.4999999982303578  0.1875000000000000   F   F   F
  0.5000000000000000  0.4999999982303578  0.1875000000000000   F   F   F
  0.2500000000000000  0.4999999982303578  0.1875000000000000   F   F   F
  0.7500000000000000  0.4999999982303578  0.1875000000000000   F   F   F
  0.1244740678137185  0.7178339262242521  0.5016865435235404   T   T   T
  0.6243285677404299  0.7163537106514574  0.5017109532965267   T   T   T
  0.3745411794754389  0.7464463808245402  0.4344919762445706   T   T   T
  0.8744431991314175  0.7464495210039440  0.4345404949429176   T   T   T
  0.1247653998266799  0.5002289723353585  0.3132286076257146   T   T   T
  0.6247910701134690  0.5002623138222833  0.3131576357986494   T   T   T
  0.3748002835747424  0.4997613417426600  0.3132634097810749   T   T   T
  0.8748933016407686  0.4996409254663092  0.3132790082876019   T   T   T
  0.9985890173164301  0.7499025779943644  0.3133670930527686   T   T   T
  0.4985743785752806  0.7499256815877881  0.3133327376912661   T   T   T
  0.2507734898758791  0.7499854257156368  0.3132674967601857   T   T   T
  0.7508320769157150  0.7498781826533860  0.3132380451289131   T   T   T
  0.9994243853025712  0.4983831537898946  0.4425355518382126   T   T   T
  0.4993234635449405  0.4982318470634290  0.4422755032670687   T   T   T
  0.2492133971444831  0.4983237183724158  0.4422884245412340   T   T   T
  0.7492187637063505  0.4982478982895158  0.4421828669095206   T   T   T
  0.0000000000000000  0.7499999973455402  0.1396100070000017   F   F   F
  0.5000000000000000  0.7499999973455402  0.1396100070000017   F   F   F
  0.2500000000000000  0.7499999973455402  0.1396100070000017   F   F   F
  0.7500000000000000  0.7499999973455402  0.1396100070000017   F   F   F
  0.0000000000000000  0.4999999982303578  0.0146099999999976   F   F   F
  0.5000000000000000  0.4999999982303578  0.0146099999999976   F   F   F
  0.2500000000000000  0.4999999982303578  0.0146099999999976   F   F   F
  0.7500000000000000  0.4999999982303578  0.0146099999999976   F   F   F
  0.1250000000000000  0.9042200117997155  0.1875000000000000   F   F   F
  0.6250000000000000  0.9042200117997155  0.1875000000000000   F   F   F
  0.3750000000000000  0.9042200117997155  0.1875000000000000   F   F   F
  0.8750000000000000  0.9042200117997155  0.1875000000000000   F   F   F
  0.1250000000000000  0.6542199976845282  0.0625000000000000   F   F   F
  0.6250000000000000  0.6542199976845282  0.0625000000000000   F   F   F
  0.3750000000000000  0.6542199976845282  0.0625000000000000   F   F   F
  0.8750000000000000  0.6542199976845282  0.0625000000000000   F   F   F
  0.0000000000000000  0.7499999973455402  0.2353899929999983   F   F   F
  0.5000000000000000  0.7499999973455402  0.2353899929999983   F   F   F
  0.2500000000000000  0.7499999973455402  0.2353899929999983   F   F   F
  0.7500000000000000  0.7499999973455402  0.2353899929999983   F   F   F
  0.0000000000000000  0.4999999982303578  0.1103900000000024   F   F   F
  0.5000000000000000  0.4999999982303578  0.1103900000000024   F   F   F
  0.2500000000000000  0.4999999982303578  0.1103900000000024   F   F   F
  0.7500000000000000  0.4999999982303578  0.1103900000000024   F   F   F
  0.1250000000000000  0.5957799978913698  0.1875000000000000   F   F   F
  0.6250000000000000  0.5957799978913698  0.1875000000000000   F   F   F
  0.3750000000000000  0.5957799978913698  0.1875000000000000   F   F   F
  0.8750000000000000  0.5957799978913698  0.1875000000000000   F   F   F
  0.1250000000000000  0.8457799820065475  0.0625000000000000   F   F   F
  0.6250000000000000  0.8457799820065475  0.0625000000000000   F   F   F
  0.3750000000000000  0.8457799820065475  0.0625000000000000   F   F   F
  0.8750000000000000  0.8457799820065475  0.0625000000000000   F   F   F
  0.9917054833791443  0.7496647775951332  0.3871524904810278   T   T   T
  0.4917302929070263  0.7494860219245324  0.3870994386615883   T   T   T
  0.2574601742139815  0.7498551362390375  0.3869411614783247   T   T   T
  0.7575357260268694  0.7496658132926822  0.3869382926382438   T   T   T
  0.9999157581632591  0.4997172016749572  0.2651194984996302   T   T   T
  0.4998885268924332  0.4998064894123159  0.2650794665675799   T   T   T
  0.2497578198816082  0.4994591566352741  0.2650961931978636   T   T   T
  0.7498653720464068  0.4992907744870779  0.2650802736294302   T   T   T
  0.1255833692569408  0.9079039280622307  0.4345649859754365   T   T   T
  0.6252849610196857  0.9080027130028433  0.4350173435718751   T   T   T
  0.3752461585078130  0.9029416506978076  0.4354730229378379   T   T   T
  0.8751222850499834  0.9028004672897092  0.4354066789773312   T   T   T
  0.1245891035571546  0.6540726946858766  0.3137427675927200   T   T   T
  0.6246034069196055  0.6540556812322952  0.3135722793133753   T   T   T
  0.3746961618164594  0.6537988913655606  0.3103043104144581   T   T   T
  0.8747812150162483  0.6537026880876836  0.3102814886250690   T   T   T
  0.9843204529158431  0.7338818119379276  0.4876508233202148   T   T   T
  0.4843830542574272  0.7331739817729522  0.4875965831005170   T   T   T
  0.2643122234207208  0.7341778946969799  0.4872553438671648   T   T   T
  0.7640043017602878  0.7338248090050785  0.4873080308638046   T   T   T
  0.0008315346252208  0.5001369105739317  0.3616716641005166   T   T   T
  0.5006997902975505  0.5005472951269091  0.3615577014721415   T   T   T
  0.2486664415622338  0.5002819528317318  0.3615982773408641   T   T   T
  0.7487913020133533  0.5003593285498056  0.3615504154095457   T   T   T
  0.1243868489507195  0.5986527739093520  0.4461372330004915   T   T   T
  0.6240777059173042  0.5985387597714668  0.4456625132622050   T   T   T
  0.3741974019279813  0.5908081225610102  0.4334824750119076   T   T   T
  0.8741935927346371  0.5908463464648824  0.4335634745912787   T   T   T
  0.1245691683629995  0.8456548843679162  0.3133073256162374   T   T   T
  0.6246511190953546  0.8456075770888787  0.3133273268956506   T   T   T
  0.3748004485427123  0.8462547209082832  0.3101574167123301   T   T   T
  0.8747233538794500  0.8461613388367936  0.3101156853531599   T   T   T
  0.2561702305127924  0.4961166736699439  0.5116065441921905   T   T   T
  0.7550658298377732  0.4958509588798148  0.5115527075159947   T   T   T
  0.9932007360252677  0.4969981506511171  0.5119817498439144   T   T   T
  0.4934611531955955  0.4963005096556923  0.5116751026636306   T   T   T
  0.1252279926275175  0.7508110905511136  0.5666168448414636   T   T   T
  0.6245561502401341  0.7456002217931786  0.5670524984434903   T   T   T
 
  0.00000000E+00  0.00000000E+00  0.00000000E+00
  0.00000000E+00  0.00000000E+00  0.00000000E+00
  0.00000000E+00  0.00000000E+00  0.00000000E+00
  0.00000000E+00  0.00000000E+00  0.00000000E+00
  0.00000000E+00  0.00000000E+00  0.00000000E+00
  0.00000000E+00  0.00000000E+00  0.00000000E+00
  0.00000000E+00  0.00000000E+00  0.00000000E+00
  0.00000000E+00  0.00000000E+00  0.00000000E+00
  0.00000000E+00  0.00000000E+00  0.00000000E+00
  0.00000000E+00  0.00000000E+00  0.00000000E+00
  0.00000000E+00  0.00000000E+00  0.00000000E+00
  0.00000000E+00  0.00000000E+00  0.00000000E+00
  0.00000000E+00  0.00000000E+00  0.00000000E+00
  0.00000000E+00  0.00000000E+00  0.00000000E+00
  0.00000000E+00  0.00000000E+00  0.00000000E+00
  0.00000000E+00  0.00000000E+00  0.00000000E+00
  0.00000000E+00  0.00000000E+00  0.00000000E+00
  0.00000000E+00  0.00000000E+00  0.00000000E+00
  0.00000000E+00  0.00000000E+00  0.00000000E+00
  0.00000000E+00  0.00000000E+00  0.00000000E+00
  0.00000000E+00  0.00000000E+00  0.00000000E+00
  0.00000000E+00  0.00000000E+00  0.00000000E+00
  0.00000000E+00  0.00000000E+00  0.00000000E+00
  0.00000000E+00  0.00000000E+00  0.00000000E+00
  0.00000000E+00  0.00000000E+00  0.00000000E+00
  0.00000000E+00  0.00000000E+00  0.00000000E+00
  0.00000000E+00  0.00000000E+00  0.00000000E+00
  0.00000000E+00  0.00000000E+00  0.00000000E+00
  0.00000000E+00  0.00000000E+00  0.00000000E+00
  0.00000000E+00  0.00000000E+00  0.00000000E+00
  0.00000000E+00  0.00000000E+00  0.00000000E+00
  0.00000000E+00  0.00000000E+00  0.00000000E+00
  0.00000000E+00  0.00000000E+00  0.00000000E+00
  0.00000000E+00  0.00000000E+00  0.00000000E+00
  0.00000000E+00  0.00000000E+00  0.00000000E+00
  0.00000000E+00  0.00000000E+00  0.00000000E+00
  0.00000000E+00  0.00000000E+00  0.00000000E+00
  0.00000000E+00  0.00000000E+00  0.00000000E+00
  0.00000000E+00  0.00000000E+00  0.00000000E+00
  0.00000000E+00  0.00000000E+00  0.00000000E+00
  0.00000000E+00  0.00000000E+00  0.00000000E+00
  0.00000000E+00  0.00000000E+00  0.00000000E+00
  0.00000000E+00  0.00000000E+00  0.00000000E+00
  0.00000000E+00  0.00000000E+00  0.00000000E+00
  0.00000000E+00  0.00000000E+00  0.00000000E+00
  0.00000000E+00  0.00000000E+00  0.00000000E+00
  0.00000000E+00  0.00000000E+00  0.00000000E+00
  0.00000000E+00  0.00000000E+00  0.00000000E+00
  0.00000000E+00  0.00000000E+00  0.00000000E+00
  0.00000000E+00  0.00000000E+00  0.00000000E+00
  0.00000000E+00  0.00000000E+00  0.00000000E+00
  0.00000000E+00  0.00000000E+00  0.00000000E+00
  0.00000000E+00  0.00000000E+00  0.00000000E+00
  0.00000000E+00  0.00000000E+00  0.00000000E+00
  0.00000000E+00  0.00000000E+00  0.00000000E+00
  0.00000000E+00  0.00000000E+00  0.00000000E+00
  0.00000000E+00  0.00000000E+00  0.00000000E+00
  0.00000000E+00  0.00000000E+00  0.00000000E+00
  0.00000000E+00  0.00000000E+00  0.00000000E+00
  0.00000000E+00  0.00000000E+00  0.00000000E+00
  0.00000000E+00  0.00000000E+00  0.00000000E+00
  0.00000000E+00  0.00000000E+00  0.00000000E+00
  0.00000000E+00  0.00000000E+00  0.00000000E+00
  0.00000000E+00  0.00000000E+00  0.00000000E+00
  0.00000000E+00  0.00000000E+00  0.00000000E+00
  0.00000000E+00  0.00000000E+00  0.00000000E+00
  0.00000000E+00  0.00000000E+00  0.00000000E+00
  0.00000000E+00  0.00000000E+00  0.00000000E+00
  0.00000000E+00  0.00000000E+00  0.00000000E+00
  0.00000000E+00  0.00000000E+00  0.00000000E+00
  0.00000000E+00  0.00000000E+00  0.00000000E+00
  0.00000000E+00  0.00000000E+00  0.00000000E+00
  0.00000000E+00  0.00000000E+00  0.00000000E+00
  0.00000000E+00  0.00000000E+00  0.00000000E+00
  0.00000000E+00  0.00000000E+00  0.00000000E+00
  0.00000000E+00  0.00000000E+00  0.00000000E+00
  0.00000000E+00  0.00000000E+00  0.00000000E+00
  0.00000000E+00  0.00000000E+00  0.00000000E+00
  0.00000000E+00  0.00000000E+00  0.00000000E+00
  0.00000000E+00  0.00000000E+00  0.00000000E+00
  0.00000000E+00  0.00000000E+00  0.00000000E+00
  0.00000000E+00  0.00000000E+00  0.00000000E+00
  0.00000000E+00  0.00000000E+00  0.00000000E+00
  0.00000000E+00  0.00000000E+00  0.00000000E+00
  0.00000000E+00  0.00000000E+00  0.00000000E+00
  0.00000000E+00  0.00000000E+00  0.00000000E+00
  0.00000000E+00  0.00000000E+00  0.00000000E+00
  0.00000000E+00  0.00000000E+00  0.00000000E+00
  0.00000000E+00  0.00000000E+00  0.00000000E+00
  0.00000000E+00  0.00000000E+00  0.00000000E+00
  0.00000000E+00  0.00000000E+00  0.00000000E+00
  0.00000000E+00  0.00000000E+00  0.00000000E+00
  0.00000000E+00  0.00000000E+00  0.00000000E+00
  0.00000000E+00  0.00000000E+00  0.00000000E+00
  0.00000000E+00  0.00000000E+00  0.00000000E+00
  0.00000000E+00  0.00000000E+00  0.00000000E+00
  0.00000000E+00  0.00000000E+00  0.00000000E+00
  0.00000000E+00  0.00000000E+00  0.00000000E+00
  0.00000000E+00  0.00000000E+00  0.00000000E+00
  0.00000000E+00  0.00000000E+00  0.00000000E+00
  0.00000000E+00  0.00000000E+00  0.00000000E+00
  0.00000000E+00  0.00000000E+00  0.00000000E+00
  0.00000000E+00  0.00000000E+00  0.00000000E+00
  0.00000000E+00  0.00000000E+00  0.00000000E+00
  0.00000000E+00  0.00000000E+00  0.00000000E+00
  0.00000000E+00  0.00000000E+00  0.00000000E+00
  0.00000000E+00  0.00000000E+00  0.00000000E+00
  0.00000000E+00  0.00000000E+00  0.00000000E+00
  0.00000000E+00  0.00000000E+00  0.00000000E+00
  0.00000000E+00  0.00000000E+00  0.00000000E+00
  0.00000000E+00  0.00000000E+00  0.00000000E+00
  0.00000000E+00  0.00000000E+00  0.00000000E+00
  0.00000000E+00  0.00000000E+00  0.00000000E+00
  0.00000000E+00  0.00000000E+00  0.00000000E+00
  0.00000000E+00  0.00000000E+00  0.00000000E+00
  0.00000000E+00  0.00000000E+00  0.00000000E+00
  0.00000000E+00  0.00000000E+00  0.00000000E+00
  0.00000000E+00  0.00000000E+00  0.00000000E+00
  0.00000000E+00  0.00000000E+00  0.00000000E+00
  0.00000000E+00  0.00000000E+00  0.00000000E+00
  0.00000000E+00  0.00000000E+00  0.00000000E+00
  0.00000000E+00  0.00000000E+00  0.00000000E+00
  0.00000000E+00  0.00000000E+00  0.00000000E+00
  0.00000000E+00  0.00000000E+00  0.00000000E+00
  0.00000000E+00  0.00000000E+00  0.00000000E+00
  0.00000000E+00  0.00000000E+00  0.00000000E+00
  0.00000000E+00  0.00000000E+00  0.00000000E+00
  0.00000000E+00  0.00000000E+00  0.00000000E+00
  0.00000000E+00  0.00000000E+00  0.00000000E+00
  0.00000000E+00  0.00000000E+00  0.00000000E+00
  0.00000000E+00  0.00000000E+00  0.00000000E+00
  0.00000000E+00  0.00000000E+00  0.00000000E+00
  0.00000000E+00  0.00000000E+00  0.00000000E+00
  0.00000000E+00  0.00000000E+00  0.00000000E+00
  0.00000000E+00  0.00000000E+00  0.00000000E+00
  0.00000000E+00  0.00000000E+00  0.00000000E+00
  0.00000000E+00  0.00000000E+00  0.00000000E+00
  0.00000000E+00  0.00000000E+00  0.00000000E+00
  0.00000000E+00  0.00000000E+00  0.00000000E+00
  0.00000000E+00  0.00000000E+00  0.00000000E+00
  0.00000000E+00  0.00000000E+00  0.00000000E+00
  0.00000000E+00  0.00000000E+00  0.00000000E+00
  0.00000000E+00  0.00000000E+00  0.00000000E+00
  0.00000000E+00  0.00000000E+00  0.00000000E+00
  0.00000000E+00  0.00000000E+00  0.00000000E+00
  0.00000000E+00  0.00000000E+00  0.00000000E+00
  0.00000000E+00  0.00000000E+00  0.00000000E+00
  0.00000000E+00  0.00000000E+00  0.00000000E+00
  0.00000000E+00  0.00000000E+00  0.00000000E+00
  0.00000000E+00  0.00000000E+00  0.00000000E+00
  0.00000000E+00  0.00000000E+00  0.00000000E+00
  0.00000000E+00  0.00000000E+00  0.00000000E+00
  0.00000000E+00  0.00000000E+00  0.00000000E+00
  0.00000000E+00  0.00000000E+00  0.00000000E+00
  0.00000000E+00  0.00000000E+00  0.00000000E+00
  0.00000000E+00  0.00000000E+00  0.00000000E+00
  0.00000000E+00  0.00000000E+00  0.00000000E+00
  0.00000000E+00  0.00000000E+00  0.00000000E+00
  0.00000000E+00  0.00000000E+00  0.00000000E+00
  0.00000000E+00  0.00000000E+00  0.00000000E+00
  0.00000000E+00  0.00000000E+00  0.00000000E+00
  0.00000000E+00  0.00000000E+00  0.00000000E+00
  0.00000000E+00  0.00000000E+00  0.00000000E+00
  0.00000000E+00  0.00000000E+00  0.00000000E+00
  0.00000000E+00  0.00000000E+00  0.00000000E+00
  0.00000000E+00  0.00000000E+00  0.00000000E+00
  0.00000000E+00  0.00000000E+00  0.00000000E+00
  0.00000000E+00  0.00000000E+00  0.00000000E+00
  0.00000000E+00  0.00000000E+00  0.00000000E+00
  0.00000000E+00  0.00000000E+00  0.00000000E+00
  0.00000000E+00  0.00000000E+00  0.00000000E+00
  0.00000000E+00  0.00000000E+00  0.00000000E+00
  0.00000000E+00  0.00000000E+00  0.00000000E+00
  0.00000000E+00  0.00000000E+00  0.00000000E+00
  0.00000000E+00  0.00000000E+00  0.00000000E+00
  0.00000000E+00  0.00000000E+00  0.00000000E+00
  0.00000000E+00  0.00000000E+00  0.00000000E+00
  0.00000000E+00  0.00000000E+00  0.00000000E+00
  0.00000000E+00  0.00000000E+00  0.00000000E+00
  0.00000000E+00  0.00000000E+00  0.00000000E+00
  0.00000000E+00  0.00000000E+00  0.00000000E+00
  0.00000000E+00  0.00000000E+00  0.00000000E+00
  0.00000000E+00  0.00000000E+00  0.00000000E+00
  0.00000000E+00  0.00000000E+00  0.00000000E+00
  0.00000000E+00  0.00000000E+00  0.00000000E+00
  0.00000000E+00  0.00000000E+00  0.00000000E+00
  0.00000000E+00  0.00000000E+00  0.00000000E+00
  0.00000000E+00  0.00000000E+00  0.00000000E+00
  0.00000000E+00  0.00000000E+00  0.00000000E+00
  0.00000000E+00  0.00000000E+00  0.00000000E+00
  0.00000000E+00  0.00000000E+00  0.00000000E+00
  0.00000000E+00  0.00000000E+00  0.00000000E+00
  0.00000000E+00  0.00000000E+00  0.00000000E+00
  0.00000000E+00  0.00000000E+00  0.00000000E+00
  0.00000000E+00  0.00000000E+00  0.00000000E+00
  0.00000000E+00  0.00000000E+00  0.00000000E+00
  0.00000000E+00  0.00000000E+00  0.00000000E+00
  0.00000000E+00  0.00000000E+00  0.00000000E+00
  0.00000000E+00  0.00000000E+00  0.00000000E+00
  0.00000000E+00  0.00000000E+00  0.00000000E+00
  0.00000000E+00  0.00000000E+00  0.00000000E+00
  0.00000000E+00  0.00000000E+00  0.00000000E+00
