Ir  O Ir  O                             
   1.00000000000000     
    12.8085317611999994    0.0000000000000000    0.0000000000000000
     0.0000000000000000   12.9404859999999999    0.0000000000000000
     0.0000000000000000    0.0000000000000000   25.8809719085999994
   Ir   O    Ir   O 
    32    68    32    70
Selective dynamics
Direct
  0.1250000000000000  0.2499999991151824  0.1875000000000000   F   F   F
  0.6250000000000000  0.2499999991151824  0.1875000000000000   F   F   F
  0.3750000000000000  0.2499999991151824  0.1875000000000000   F   F   F
  0.8750000000000000  0.2499999991151824  0.1875000000000000   F   F   F
  0.1250000000000000  0.0000000000000000  0.0625000000000000   F   F   F
  0.6250000000000000  0.0000000000000000  0.0625000000000000   F   F   F
  0.3750000000000000  0.0000000000000000  0.0625000000000000   F   F   F
  0.8750000000000000  0.0000000000000000  0.0625000000000000   F   F   F
  0.0000000000000000  0.2499999991151824  0.0625000000000000   F   F   F
  0.5000000000000000  0.2499999991151824  0.0625000000000000   F   F   F
  0.2500000000000000  0.2499999991151824  0.0625000000000000   F   F   F
  0.7500000000000000  0.2499999991151824  0.0625000000000000   F   F   F
  0.0000000000000000  0.0000000000000000  0.1875000000000000   F   F   F
  0.5000000000000000  0.0000000000000000  0.1875000000000000   F   F   F
  0.2500000000000000  0.0000000000000000  0.1875000000000000   F   F   F
  0.7500000000000000  0.0000000000000000  0.1875000000000000   F   F   F
  0.1248458164772349  0.2497663428484531  0.4380389873514630   T   T   T
  0.6248519832956282  0.2496908734494013  0.4379278236699965   T   T   T
  0.3749058982912187  0.2477749684522463  0.4374488241882207   T   T   T
  0.8748963896968169  0.2477366951822237  0.4374694968275422   T   T   T
  0.1248484172950659  0.9997980950212647  0.3127604254123573   T   T   T
  0.6249271587035352  0.9997766320705935  0.3128008662443719   T   T   T
  0.3749904786949032  0.0005450614546948  0.3126277932429408   T   T   T
  0.8749080125279142  0.0004051173126401  0.3126359971487073   T   T   T
  0.0000595574720627  0.2499639061542101  0.3128877919105438   T   T   T
  0.5000110336681158  0.2500318145261612  0.3128602987428198   T   T   T
  0.2498899252115830  0.2500094559137211  0.3128839836075802   T   T   T
  0.7498993014764584  0.2499721965550780  0.3128756888654049   T   T   T
  0.0026633950747291  0.9987855557238571  0.4410219172125303   T   T   T
  0.5025901678312072  0.9989684726380689  0.4410837290058330   T   T   T
  0.2481399044714266  0.9990689112764543  0.4409859119792615   T   T   T
  0.7481183443794731  0.9989563349538882  0.4411573006058496   T   T   T
  0.0000000000000000  0.2499999991151824  0.1396100070000017   F   F   F
  0.5000000000000000  0.2499999991151824  0.1396100070000017   F   F   F
  0.2500000000000000  0.2499999991151824  0.1396100070000017   F   F   F
  0.7500000000000000  0.2499999991151824  0.1396100070000017   F   F   F
  0.0000000000000000  0.0000000000000000  0.0146099999999976   F   F   F
  0.5000000000000000  0.0000000000000000  0.0146099999999976   F   F   F
  0.2500000000000000  0.0000000000000000  0.0146099999999976   F   F   F
  0.7500000000000000  0.0000000000000000  0.0146099999999976   F   F   F
  0.1250000000000000  0.4042200135693506  0.1875000000000000   F   F   F
  0.6250000000000000  0.4042200135693506  0.1875000000000000   F   F   F
  0.3750000000000000  0.4042200135693506  0.1875000000000000   F   F   F
  0.8750000000000000  0.4042200135693506  0.1875000000000000   F   F   F
  0.1250000000000000  0.1542199994541704  0.0625000000000000   F   F   F
  0.6250000000000000  0.1542199994541704  0.0625000000000000   F   F   F
  0.3750000000000000  0.1542199994541704  0.0625000000000000   F   F   F
  0.8750000000000000  0.1542199994541704  0.0625000000000000   F   F   F
  0.0000000000000000  0.2499999991151824  0.2353899929999983   F   F   F
  0.5000000000000000  0.2499999991151824  0.2353899929999983   F   F   F
  0.2500000000000000  0.2499999991151824  0.2353899929999983   F   F   F
  0.7500000000000000  0.2499999991151824  0.2353899929999983   F   F   F
  0.0000000000000000  0.0000000000000000  0.1103900000000024   F   F   F
  0.5000000000000000  0.0000000000000000  0.1103900000000024   F   F   F
  0.2500000000000000  0.0000000000000000  0.1103900000000024   F   F   F
  0.7500000000000000  0.0000000000000000  0.1103900000000024   F   F   F
  0.1250000000000000  0.0957799996610120  0.1875000000000000   F   F   F
  0.6250000000000000  0.0957799996610120  0.1875000000000000   F   F   F
  0.3750000000000000  0.0957799996610120  0.1875000000000000   F   F   F
  0.8750000000000000  0.0957799996610120  0.1875000000000000   F   F   F
  0.1250000000000000  0.3457799837761897  0.0625000000000000   F   F   F
  0.6250000000000000  0.3457799837761897  0.0625000000000000   F   F   F
  0.3750000000000000  0.3457799837761897  0.0625000000000000   F   F   F
  0.8750000000000000  0.3457799837761897  0.0625000000000000   F   F   F
  0.0000753893200115  0.2492543676281591  0.3893522873363042   T   T   T
  0.5000154128362027  0.2492759780115047  0.3892931282811163   T   T   T
  0.2497851706912564  0.2491826680173961  0.3893927274832663   T   T   T
  0.7497813413047897  0.2490100896624969  0.3893807611301327   T   T   T
 -0.0000307227776749  0.0000550669772871  0.2648785644310894   T   T   T
  0.5001020874236134  0.0000478573733361  0.2648759019095285   T   T   T
  0.2498129979130002  0.0001045832060462  0.2647828435603506   T   T   T
  0.7497837997308771  0.0000982994907615  0.2647887918013111   T   T   T
  0.1241872890678321  0.4039121358869547  0.4382332550463482   T   T   T
  0.6243218110117226  0.4038672010015713  0.4377138026876099   T   T   T
  0.3744310887087736  0.4023572752363403  0.4340327816726375   T   T   T
  0.8745491647316860  0.4024117699705496  0.4342703034598686   T   T   T
  0.1248171244754617  0.1540287097821341  0.3122759126677224   T   T   T
  0.6247570435253221  0.1540440288451206  0.3123148301575812   T   T   T
  0.3751322270803953  0.1543162511941946  0.3124890550000778   T   T   T
  0.8752128417204247  0.1542237280440558  0.3125612370391062   T   T   T
  0.9990891898102032  0.2487516872889109  0.4832688512572803   T   T   T
  0.4991239000360642  0.2487945370814617  0.4831762821103831   T   T   T
  0.2507264786231028  0.2492555242029462  0.4833168754755402   T   T   T
  0.7506489147599825  0.2491798665655565  0.4832421139289087   T   T   T
 -0.0001206511629619  0.0004040876589945  0.3607753458980567   T   T   T
  0.4999461771995897  0.0004768331435945  0.3607838877805190   T   T   T
  0.2501316122828370  0.0008023344950327  0.3606634053220227   T   T   T
  0.7501259466165591  0.0006234067800914  0.3607422057578952   T   T   T
  0.1250800509554683  0.0958306059855358  0.4363626700884370   T   T   T
  0.6251513628569916  0.0957665010736476  0.4365256080447709   T   T   T
  0.3753915411455866  0.0943443593964620  0.4355462352081317   T   T   T
  0.8754860485722110  0.0942531850373272  0.4356870039241226   T   T   T
  0.1247137760187665  0.3459986290442741  0.3128421694918033   T   T   T
  0.6247368501029309  0.3460387140060262  0.3128434949834626   T   T   T
  0.3750855345881168  0.3458177459165595  0.3129327126338876   T   T   T
  0.8751165957291320  0.3457191746293541  0.3129676653609703   T   T   T
  0.2519349367072597  0.9991579695224001  0.5100610628380662   T   T   T
  0.7524942281222223  0.9989890701769500  0.5102475369794682   T   T   T
 -0.0011088808464297  0.9981026538651541  0.5100947465472068   T   T   T
  0.4984940356110910  0.9994261789251141  0.5101433068623999   T   T   T
  0.1250000000000000  0.7499999973455402  0.1875000000000000   F   F   F
  0.6250000000000000  0.7499999973455402  0.1875000000000000   F   F   F
  0.3750000000000000  0.7499999973455402  0.1875000000000000   F   F   F
  0.8750000000000000  0.7499999973455402  0.1875000000000000   F   F   F
  0.1250000000000000  0.4999999982303578  0.0625000000000000   F   F   F
  0.6250000000000000  0.4999999982303578  0.0625000000000000   F   F   F
  0.3750000000000000  0.4999999982303578  0.0625000000000000   F   F   F
  0.8750000000000000  0.4999999982303578  0.0625000000000000   F   F   F
  0.0000000000000000  0.7499999973455402  0.0625000000000000   F   F   F
  0.5000000000000000  0.7499999973455402  0.0625000000000000   F   F   F
  0.2500000000000000  0.7499999973455402  0.0625000000000000   F   F   F
  0.7500000000000000  0.7499999973455402  0.0625000000000000   F   F   F
  0.0000000000000000  0.4999999982303578  0.1875000000000000   F   F   F
  0.5000000000000000  0.4999999982303578  0.1875000000000000   F   F   F
  0.2500000000000000  0.4999999982303578  0.1875000000000000   F   F   F
  0.7500000000000000  0.4999999982303578  0.1875000000000000   F   F   F
  0.1245072977948726  0.7178830109103184  0.5016597611320781   T   T   T
  0.6243248191928400  0.7162442145234471  0.5016675503816677   T   T   T
  0.3744856961757230  0.7464396230802234  0.4345045318312531   T   T   T
  0.8744345665959593  0.7464007016161247  0.4345316582511169   T   T   T
  0.1247339710371898  0.5001957315938936  0.3132110748242669   T   T   T
  0.6247784450610615  0.5002565133142823  0.3131823153865624   T   T   T
  0.3747847824073057  0.4997570570818564  0.3132613397156890   T   T   T
  0.8748802181716618  0.4996344764189725  0.3133001145418957   T   T   T
  0.9985278351123235  0.7498853866050481  0.3133899213314254   T   T   T
  0.4986031199346261  0.7499203331527375  0.3133046766065065   T   T   T
  0.2508068588636536  0.7499807641294999  0.3132840963541248   T   T   T
  0.7507667661797807  0.7498657357807881  0.3132450292934933   T   T   T
  0.9994008814454768  0.4983432175242991  0.4425059132814861   T   T   T
  0.4993411269712477  0.4982408276834991  0.4422905200543934   T   T   T
  0.2492463318279629  0.4982860931497434  0.4422388573685224   T   T   T
  0.7491809190804249  0.4982527595306147  0.4421935882293340   T   T   T
  0.0000000000000000  0.7499999973455402  0.1396100070000017   F   F   F
  0.5000000000000000  0.7499999973455402  0.1396100070000017   F   F   F
  0.2500000000000000  0.7499999973455402  0.1396100070000017   F   F   F
  0.7500000000000000  0.7499999973455402  0.1396100070000017   F   F   F
  0.0000000000000000  0.4999999982303578  0.0146099999999976   F   F   F
  0.5000000000000000  0.4999999982303578  0.0146099999999976   F   F   F
  0.2500000000000000  0.4999999982303578  0.0146099999999976   F   F   F
  0.7500000000000000  0.4999999982303578  0.0146099999999976   F   F   F
  0.1250000000000000  0.9042200117997155  0.1875000000000000   F   F   F
  0.6250000000000000  0.9042200117997155  0.1875000000000000   F   F   F
  0.3750000000000000  0.9042200117997155  0.1875000000000000   F   F   F
  0.8750000000000000  0.9042200117997155  0.1875000000000000   F   F   F
  0.1250000000000000  0.6542199976845282  0.0625000000000000   F   F   F
  0.6250000000000000  0.6542199976845282  0.0625000000000000   F   F   F
  0.3750000000000000  0.6542199976845282  0.0625000000000000   F   F   F
  0.8750000000000000  0.6542199976845282  0.0625000000000000   F   F   F
  0.0000000000000000  0.7499999973455402  0.2353899929999983   F   F   F
  0.5000000000000000  0.7499999973455402  0.2353899929999983   F   F   F
  0.2500000000000000  0.7499999973455402  0.2353899929999983   F   F   F
  0.7500000000000000  0.7499999973455402  0.2353899929999983   F   F   F
  0.0000000000000000  0.4999999982303578  0.1103900000000024   F   F   F
  0.5000000000000000  0.4999999982303578  0.1103900000000024   F   F   F
  0.2500000000000000  0.4999999982303578  0.1103900000000024   F   F   F
  0.7500000000000000  0.4999999982303578  0.1103900000000024   F   F   F
  0.1250000000000000  0.5957799978913698  0.1875000000000000   F   F   F
  0.6250000000000000  0.5957799978913698  0.1875000000000000   F   F   F
  0.3750000000000000  0.5957799978913698  0.1875000000000000   F   F   F
  0.8750000000000000  0.5957799978913698  0.1875000000000000   F   F   F
  0.1250000000000000  0.8457799820065475  0.0625000000000000   F   F   F
  0.6250000000000000  0.8457799820065475  0.0625000000000000   F   F   F
  0.3750000000000000  0.8457799820065475  0.0625000000000000   F   F   F
  0.8750000000000000  0.8457799820065475  0.0625000000000000   F   F   F
  0.9916796174833604  0.7497218380022875  0.3871798970255163   T   T   T
  0.4917197924891857  0.7495047913180833  0.3870637666655026   T   T   T
  0.2574410336631459  0.7499116810108817  0.3869721410910885   T   T   T
  0.7574233896936039  0.7496706661542173  0.3868967762208187   T   T   T
 -0.0001193413116731  0.4996998119761464  0.2651262926721341   T   T   T
  0.4998543389557411  0.4998413585153654  0.2650999842097541   T   T   T
  0.2497899309338998  0.4994694138271380  0.2651030138431880   T   T   T
  0.7498973196015334  0.4992732921676664  0.2651133965126122   T   T   T
  0.1256033723275907  0.9078967069823799  0.4345689958176643   T   T   T
  0.6252994614923354  0.9079732059500941  0.4350516745649475   T   T   T
  0.3753731161352242  0.9029070410802655  0.4354837461115041   T   T   T
  0.8751498487785776  0.9028057731946217  0.4353907785691377   T   T   T
  0.1245607605434022  0.6540910826818926  0.3137290073693023   T   T   T
  0.6246064885242302  0.6540811902988936  0.3135472754956530   T   T   T
  0.3747260775447480  0.6537808748888050  0.3102992624105712   T   T   T
  0.8747967103209511  0.6536815755071209  0.3103137898849694   T   T   T
  0.9844228022915387  0.7339163555326985  0.4876755022422064   T   T   T
  0.4842760633359700  0.7331864347197502  0.4875853262042950   T   T   T
  0.2642418370784694  0.7343861160363115  0.4872819361158033   T   T   T
  0.7640678818834147  0.7339203791678753  0.4872985140120066   T   T   T
  0.0008859200644978  0.5001104689768725  0.3617292804473420   T   T   T
  0.5007198463904926  0.5006664632493991  0.3615787572861231   T   T   T
  0.2486180674618704  0.5003014578683818  0.3616183798148338   T   T   T
  0.7487904564244978  0.5004358224948291  0.3615627414090337   T   T   T
  0.1243909185980365  0.5986305349918670  0.4461296690073920   T   T   T
  0.6240437779419926  0.5985235330382794  0.4455584551088250   T   T   T
  0.3741342678522763  0.5908571303065018  0.4334785151083847   T   T   T
  0.8742007512513544  0.5908490261101131  0.4335035595736353   T   T   T
  0.1245254516252147  0.8456115239781985  0.3132823258237055   T   T   T
  0.6246377334269886  0.8455859085984763  0.3133110748151736   T   T   T
  0.3747770067741421  0.8462539763209066  0.3101779345110121   T   T   T
  0.8746765310785470  0.8460800715250762  0.3101122472622169   T   T   T
  0.2562888284193448  0.4960695357246749  0.5116053652494249   T   T   T
  0.7550190294457153  0.4959660919070781  0.5116467331085792   T   T   T
  0.9932390154125575  0.4969244490000955  0.5119831039218675   T   T   T
  0.4933381650708367  0.4962329162255413  0.5117867414820635   T   T   T
  0.1252691257511755  0.7510807640490145  0.5666302896674638   T   T   T
  0.6244480216462078  0.7457210979555735  0.5670266286718438   T   T   T
 
  0.00000000E+00  0.00000000E+00  0.00000000E+00
  0.00000000E+00  0.00000000E+00  0.00000000E+00
  0.00000000E+00  0.00000000E+00  0.00000000E+00
  0.00000000E+00  0.00000000E+00  0.00000000E+00
  0.00000000E+00  0.00000000E+00  0.00000000E+00
  0.00000000E+00  0.00000000E+00  0.00000000E+00
  0.00000000E+00  0.00000000E+00  0.00000000E+00
  0.00000000E+00  0.00000000E+00  0.00000000E+00
  0.00000000E+00  0.00000000E+00  0.00000000E+00
  0.00000000E+00  0.00000000E+00  0.00000000E+00
  0.00000000E+00  0.00000000E+00  0.00000000E+00
  0.00000000E+00  0.00000000E+00  0.00000000E+00
  0.00000000E+00  0.00000000E+00  0.00000000E+00
  0.00000000E+00  0.00000000E+00  0.00000000E+00
  0.00000000E+00  0.00000000E+00  0.00000000E+00
  0.00000000E+00  0.00000000E+00  0.00000000E+00
  0.00000000E+00  0.00000000E+00  0.00000000E+00
  0.00000000E+00  0.00000000E+00  0.00000000E+00
  0.00000000E+00  0.00000000E+00  0.00000000E+00
  0.00000000E+00  0.00000000E+00  0.00000000E+00
  0.00000000E+00  0.00000000E+00  0.00000000E+00
  0.00000000E+00  0.00000000E+00  0.00000000E+00
  0.00000000E+00  0.00000000E+00  0.00000000E+00
  0.00000000E+00  0.00000000E+00  0.00000000E+00
  0.00000000E+00  0.00000000E+00  0.00000000E+00
  0.00000000E+00  0.00000000E+00  0.00000000E+00
  0.00000000E+00  0.00000000E+00  0.00000000E+00
  0.00000000E+00  0.00000000E+00  0.00000000E+00
  0.00000000E+00  0.00000000E+00  0.00000000E+00
  0.00000000E+00  0.00000000E+00  0.00000000E+00
  0.00000000E+00  0.00000000E+00  0.00000000E+00
  0.00000000E+00  0.00000000E+00  0.00000000E+00
  0.00000000E+00  0.00000000E+00  0.00000000E+00
  0.00000000E+00  0.00000000E+00  0.00000000E+00
  0.00000000E+00  0.00000000E+00  0.00000000E+00
  0.00000000E+00  0.00000000E+00  0.00000000E+00
  0.00000000E+00  0.00000000E+00  0.00000000E+00
  0.00000000E+00  0.00000000E+00  0.00000000E+00
  0.00000000E+00  0.00000000E+00  0.00000000E+00
  0.00000000E+00  0.00000000E+00  0.00000000E+00
  0.00000000E+00  0.00000000E+00  0.00000000E+00
  0.00000000E+00  0.00000000E+00  0.00000000E+00
  0.00000000E+00  0.00000000E+00  0.00000000E+00
  0.00000000E+00  0.00000000E+00  0.00000000E+00
  0.00000000E+00  0.00000000E+00  0.00000000E+00
  0.00000000E+00  0.00000000E+00  0.00000000E+00
  0.00000000E+00  0.00000000E+00  0.00000000E+00
  0.00000000E+00  0.00000000E+00  0.00000000E+00
  0.00000000E+00  0.00000000E+00  0.00000000E+00
  0.00000000E+00  0.00000000E+00  0.00000000E+00
  0.00000000E+00  0.00000000E+00  0.00000000E+00
  0.00000000E+00  0.00000000E+00  0.00000000E+00
  0.00000000E+00  0.00000000E+00  0.00000000E+00
  0.00000000E+00  0.00000000E+00  0.00000000E+00
  0.00000000E+00  0.00000000E+00  0.00000000E+00
  0.00000000E+00  0.00000000E+00  0.00000000E+00
  0.00000000E+00  0.00000000E+00  0.00000000E+00
  0.00000000E+00  0.00000000E+00  0.00000000E+00
  0.00000000E+00  0.00000000E+00  0.00000000E+00
  0.00000000E+00  0.00000000E+00  0.00000000E+00
  0.00000000E+00  0.00000000E+00  0.00000000E+00
  0.00000000E+00  0.00000000E+00  0.00000000E+00
  0.00000000E+00  0.00000000E+00  0.00000000E+00
  0.00000000E+00  0.00000000E+00  0.00000000E+00
  0.00000000E+00  0.00000000E+00  0.00000000E+00
  0.00000000E+00  0.00000000E+00  0.00000000E+00
  0.00000000E+00  0.00000000E+00  0.00000000E+00
  0.00000000E+00  0.00000000E+00  0.00000000E+00
  0.00000000E+00  0.00000000E+00  0.00000000E+00
  0.00000000E+00  0.00000000E+00  0.00000000E+00
  0.00000000E+00  0.00000000E+00  0.00000000E+00
  0.00000000E+00  0.00000000E+00  0.00000000E+00
  0.00000000E+00  0.00000000E+00  0.00000000E+00
  0.00000000E+00  0.00000000E+00  0.00000000E+00
  0.00000000E+00  0.00000000E+00  0.00000000E+00
  0.00000000E+00  0.00000000E+00  0.00000000E+00
  0.00000000E+00  0.00000000E+00  0.00000000E+00
  0.00000000E+00  0.00000000E+00  0.00000000E+00
  0.00000000E+00  0.00000000E+00  0.00000000E+00
  0.00000000E+00  0.00000000E+00  0.00000000E+00
  0.00000000E+00  0.00000000E+00  0.00000000E+00
  0.00000000E+00  0.00000000E+00  0.00000000E+00
  0.00000000E+00  0.00000000E+00  0.00000000E+00
  0.00000000E+00  0.00000000E+00  0.00000000E+00
  0.00000000E+00  0.00000000E+00  0.00000000E+00
  0.00000000E+00  0.00000000E+00  0.00000000E+00
  0.00000000E+00  0.00000000E+00  0.00000000E+00
  0.00000000E+00  0.00000000E+00  0.00000000E+00
  0.00000000E+00  0.00000000E+00  0.00000000E+00
  0.00000000E+00  0.00000000E+00  0.00000000E+00
  0.00000000E+00  0.00000000E+00  0.00000000E+00
  0.00000000E+00  0.00000000E+00  0.00000000E+00
  0.00000000E+00  0.00000000E+00  0.00000000E+00
  0.00000000E+00  0.00000000E+00  0.00000000E+00
  0.00000000E+00  0.00000000E+00  0.00000000E+00
  0.00000000E+00  0.00000000E+00  0.00000000E+00
  0.00000000E+00  0.00000000E+00  0.00000000E+00
  0.00000000E+00  0.00000000E+00  0.00000000E+00
  0.00000000E+00  0.00000000E+00  0.00000000E+00
  0.00000000E+00  0.00000000E+00  0.00000000E+00
  0.00000000E+00  0.00000000E+00  0.00000000E+00
  0.00000000E+00  0.00000000E+00  0.00000000E+00
  0.00000000E+00  0.00000000E+00  0.00000000E+00
  0.00000000E+00  0.00000000E+00  0.00000000E+00
  0.00000000E+00  0.00000000E+00  0.00000000E+00
  0.00000000E+00  0.00000000E+00  0.00000000E+00
  0.00000000E+00  0.00000000E+00  0.00000000E+00
  0.00000000E+00  0.00000000E+00  0.00000000E+00
  0.00000000E+00  0.00000000E+00  0.00000000E+00
  0.00000000E+00  0.00000000E+00  0.00000000E+00
  0.00000000E+00  0.00000000E+00  0.00000000E+00
  0.00000000E+00  0.00000000E+00  0.00000000E+00
  0.00000000E+00  0.00000000E+00  0.00000000E+00
  0.00000000E+00  0.00000000E+00  0.00000000E+00
  0.00000000E+00  0.00000000E+00  0.00000000E+00
  0.00000000E+00  0.00000000E+00  0.00000000E+00
  0.00000000E+00  0.00000000E+00  0.00000000E+00
  0.00000000E+00  0.00000000E+00  0.00000000E+00
  0.00000000E+00  0.00000000E+00  0.00000000E+00
  0.00000000E+00  0.00000000E+00  0.00000000E+00
  0.00000000E+00  0.00000000E+00  0.00000000E+00
  0.00000000E+00  0.00000000E+00  0.00000000E+00
  0.00000000E+00  0.00000000E+00  0.00000000E+00
  0.00000000E+00  0.00000000E+00  0.00000000E+00
  0.00000000E+00  0.00000000E+00  0.00000000E+00
  0.00000000E+00  0.00000000E+00  0.00000000E+00
  0.00000000E+00  0.00000000E+00  0.00000000E+00
  0.00000000E+00  0.00000000E+00  0.00000000E+00
  0.00000000E+00  0.00000000E+00  0.00000000E+00
  0.00000000E+00  0.00000000E+00  0.00000000E+00
  0.00000000E+00  0.00000000E+00  0.00000000E+00
  0.00000000E+00  0.00000000E+00  0.00000000E+00
  0.00000000E+00  0.00000000E+00  0.00000000E+00
  0.00000000E+00  0.00000000E+00  0.00000000E+00
  0.00000000E+00  0.00000000E+00  0.00000000E+00
  0.00000000E+00  0.00000000E+00  0.00000000E+00
  0.00000000E+00  0.00000000E+00  0.00000000E+00
  0.00000000E+00  0.00000000E+00  0.00000000E+00
  0.00000000E+00  0.00000000E+00  0.00000000E+00
  0.00000000E+00  0.00000000E+00  0.00000000E+00
  0.00000000E+00  0.00000000E+00  0.00000000E+00
  0.00000000E+00  0.00000000E+00  0.00000000E+00
  0.00000000E+00  0.00000000E+00  0.00000000E+00
  0.00000000E+00  0.00000000E+00  0.00000000E+00
  0.00000000E+00  0.00000000E+00  0.00000000E+00
  0.00000000E+00  0.00000000E+00  0.00000000E+00
  0.00000000E+00  0.00000000E+00  0.00000000E+00
  0.00000000E+00  0.00000000E+00  0.00000000E+00
  0.00000000E+00  0.00000000E+00  0.00000000E+00
  0.00000000E+00  0.00000000E+00  0.00000000E+00
  0.00000000E+00  0.00000000E+00  0.00000000E+00
  0.00000000E+00  0.00000000E+00  0.00000000E+00
  0.00000000E+00  0.00000000E+00  0.00000000E+00
  0.00000000E+00  0.00000000E+00  0.00000000E+00
  0.00000000E+00  0.00000000E+00  0.00000000E+00
  0.00000000E+00  0.00000000E+00  0.00000000E+00
  0.00000000E+00  0.00000000E+00  0.00000000E+00
  0.00000000E+00  0.00000000E+00  0.00000000E+00
  0.00000000E+00  0.00000000E+00  0.00000000E+00
  0.00000000E+00  0.00000000E+00  0.00000000E+00
  0.00000000E+00  0.00000000E+00  0.00000000E+00
  0.00000000E+00  0.00000000E+00  0.00000000E+00
  0.00000000E+00  0.00000000E+00  0.00000000E+00
  0.00000000E+00  0.00000000E+00  0.00000000E+00
  0.00000000E+00  0.00000000E+00  0.00000000E+00
  0.00000000E+00  0.00000000E+00  0.00000000E+00
  0.00000000E+00  0.00000000E+00  0.00000000E+00
  0.00000000E+00  0.00000000E+00  0.00000000E+00
  0.00000000E+00  0.00000000E+00  0.00000000E+00
  0.00000000E+00  0.00000000E+00  0.00000000E+00
  0.00000000E+00  0.00000000E+00  0.00000000E+00
  0.00000000E+00  0.00000000E+00  0.00000000E+00
  0.00000000E+00  0.00000000E+00  0.00000000E+00
  0.00000000E+00  0.00000000E+00  0.00000000E+00
  0.00000000E+00  0.00000000E+00  0.00000000E+00
  0.00000000E+00  0.00000000E+00  0.00000000E+00
  0.00000000E+00  0.00000000E+00  0.00000000E+00
  0.00000000E+00  0.00000000E+00  0.00000000E+00
  0.00000000E+00  0.00000000E+00  0.00000000E+00
  0.00000000E+00  0.00000000E+00  0.00000000E+00
  0.00000000E+00  0.00000000E+00  0.00000000E+00
  0.00000000E+00  0.00000000E+00  0.00000000E+00
  0.00000000E+00  0.00000000E+00  0.00000000E+00
  0.00000000E+00  0.00000000E+00  0.00000000E+00
  0.00000000E+00  0.00000000E+00  0.00000000E+00
  0.00000000E+00  0.00000000E+00  0.00000000E+00
  0.00000000E+00  0.00000000E+00  0.00000000E+00
  0.00000000E+00  0.00000000E+00  0.00000000E+00
  0.00000000E+00  0.00000000E+00  0.00000000E+00
  0.00000000E+00  0.00000000E+00  0.00000000E+00
  0.00000000E+00  0.00000000E+00  0.00000000E+00
  0.00000000E+00  0.00000000E+00  0.00000000E+00
  0.00000000E+00  0.00000000E+00  0.00000000E+00
  0.00000000E+00  0.00000000E+00  0.00000000E+00
  0.00000000E+00  0.00000000E+00  0.00000000E+00
  0.00000000E+00  0.00000000E+00  0.00000000E+00
  0.00000000E+00  0.00000000E+00  0.00000000E+00
  0.00000000E+00  0.00000000E+00  0.00000000E+00
  0.00000000E+00  0.00000000E+00  0.00000000E+00
  0.00000000E+00  0.00000000E+00  0.00000000E+00
  0.00000000E+00  0.00000000E+00  0.00000000E+00
  0.00000000E+00  0.00000000E+00  0.00000000E+00
