Ir  O Ir  O 
 1.0000000000000000
    12.8085319999999996    0.0000000000000000    0.0000000000000000
     0.0000000000000000    6.4702430000000000    0.0000000000000000
     0.0000000000000000    0.0000000000000000   25.8809719999999999
  16  34  16  34
Selective dynamics
Cartesian
  1.6010664999999999  3.2351215000000000  4.8526822500000000   F   F   F
  4.8031994999999998  3.2351215000000000  4.8526822500000000   F   F   F
  1.6010664999999999  0.0000000000000000  1.6175607500000000   F   F   F
  4.8031994999999998  0.0000000000000000  1.6175607500000000   F   F   F
  0.0000000000000000  3.2351215000000000  1.6175607500000000   F   F   F
  3.2021329999999999  3.2351215000000000  1.6175607500000000   F   F   F
  0.0000000000000000  0.0000000000000000  4.8526822500000000   F   F   F
  3.2021329999999999  0.0000000000000000  4.8526822500000000   F   F   F
  1.6014848867868308  3.2351215000000000 11.3391575568882033   T   T   T
  4.8050610921114298  3.2351215000000000 11.3510867526044237   T   T   T
  1.6004678529278957  0.0000000000000000  8.1048863399807356   T   T   T
  4.7912058680923719  0.0000000000000000  8.0910257693892778   T   T   T
  0.0024602029796924  3.2351215000000000  8.1009036321582713   T   T   T
  3.2002246083753061  3.2351215000000000  8.1010056204348615   T   T   T
 -0.0138844439660425  0.0000000000000000 11.4410031728302375   T   T   T
  3.2158906590060168  0.0000000000000000 11.4452895583317069   T   T   T
  0.0000000000000000  3.2351215000000000  3.6132425009199376   F   F   F
  3.2021329999999999  3.2351215000000000  3.6132425009199376   F   F   F
  0.0000000000000000  0.0000000000000000  0.3781210009199379   F   F   F
  3.2021329999999999  0.0000000000000000  0.3781210009199379   F   F   F
  1.6010664999999999  5.2308032509199833  4.8526822500000000   F   F   F
  4.8031994999999998  5.2308032509199833  4.8526822500000000   F   F   F
  1.6010664999999999  1.9956817509199831  1.6175607500000000   F   F   F
  4.8031994999999998  1.9956817509199831  1.6175607500000000   F   F   F
  0.0000000000000000  3.2351215000000000  6.0921219990800619   F   F   F
  3.2021329999999999  3.2351215000000000  6.0921219990800619   F   F   F
  0.0000000000000000  0.0000000000000000  2.8570004990800624   F   F   F
  3.2021329999999999  0.0000000000000000  2.8570004990800624   F   F   F
  1.6010664999999999  1.2394397490800166  4.8526822500000000   F   F   F
  4.8031994999999998  1.2394397490800166  4.8526822500000000   F   F   F
  1.6010664999999999  4.4745612490800166  1.6175607500000000   F   F   F
  4.8031994999999998  4.4745612490800166  1.6175607500000000   F   F   F
 -0.0016027480954903  3.2351215000000000 10.0882871949459485   T   T   T
  3.2058238132267487  3.2351215000000000 10.0885111605906008   T   T   T
  0.0075305878223285  0.0000000000000000  6.8524935577386250   T   T   T
  3.1936977132712743  0.0000000000000000  6.8522606042460978   T   T   T
  1.6007234039304059  5.2362177215235839 11.2912162172639565   T   T   T
  4.8312739937780922  5.2324612235787633 11.3669451770896206   T   T   T
  1.5992861014580113  1.9901943216109450  8.0975069110459366   T   T   T
  4.7991078540900638  1.9906740870024013  8.0838199415170742   T   T   T
  0.0023628860903416  3.2351215000000000 12.5219598576805105   T   T   T
  3.1992061726678434  3.2351215000000000 12.5236820775124755   T   T   T
 -0.0060347197522648  0.0000000000000000  9.3516089411273740   T   T   T
  3.2070248939806314  0.0000000000000000  9.3509398204775245   T   T   T
  1.6007234039304059  1.2340252784764159 11.2912162172639565   T   T   T
  4.8312739937780922  1.2377817764212355 11.3669451770896206   T   T   T
  1.5992861014580113  4.4800486783890543  8.0975069110459366   T   T   T
  4.7991078540900638  4.4795689129975989  8.0838199415170742   T   T   T
  3.1754837511525391  0.0000000000000000 13.2392425576497175   T   T   T
  0.0301102827534336  0.0000000000000000 13.2356561779446267   T   T   T
  8.0053324999999997  3.2351215000000000  4.8526822500000000   F   F   F
 11.2074654999999996  3.2351215000000000  4.8526822500000000   F   F   F
  8.0053324999999997  0.0000000000000000  1.6175607500000000   F   F   F
 11.2074654999999996  0.0000000000000000  1.6175607500000000   F   F   F
  6.4042659999999998  3.2351215000000000  1.6175607500000000   F   F   F
  9.6063989999999997  3.2351215000000000  1.6175607500000000   F   F   F
  6.4042659999999998  0.0000000000000000  4.8526822500000000   F   F   F
  9.6063989999999997  0.0000000000000000  4.8526822500000000   F   F   F
  8.0050735973950449  3.2351215000000000 11.2991495570303702   T   T   T
 11.2059636038019796  3.2351215000000000 11.3506512477714256   T   T   T
  8.0040134850013249  0.0000000000000000  8.0994172005352638   T   T   T
 11.2188012661002343  0.0000000000000000  8.0893830708434820   T   T   T
  6.4000013384370860  3.2351215000000000  8.0922316156573881   T   T   T
  9.6106360861615467  3.2351215000000000  8.0916230407540120   T   T   T
  6.4533051107062560  0.0000000000000000 11.3677293454203934   T   T   T
  9.5545943161655682  0.0000000000000000 11.3681307238565470   T   T   T
  6.4042659999999998  3.2351215000000000  3.6132425009199376   F   F   F
  9.6063989999999997  3.2351215000000000  3.6132425009199376   F   F   F
  6.4042659999999998  0.0000000000000000  0.3781210009199379   F   F   F
  9.6063989999999997  0.0000000000000000  0.3781210009199379   F   F   F
  8.0053324999999997  5.2308032509199833  4.8526822500000000   F   F   F
 11.2074654999999996  5.2308032509199833  4.8526822500000000   F   F   F
  8.0053324999999997  1.9956817509199831  1.6175607500000000   F   F   F
 11.2074654999999996  1.9956817509199831  1.6175607500000000   F   F   F
  6.4042659999999998  3.2351215000000000  6.0921219990800619   F   F   F
  9.6063989999999997  3.2351215000000000  6.0921219990800619   F   F   F
  6.4042659999999998  0.0000000000000000  2.8570004990800624   F   F   F
  9.6063989999999997  0.0000000000000000  2.8570004990800624   F   F   F
  8.0053324999999997  1.2394397490800166  4.8526822500000000   F   F   F
 11.2074654999999996  1.2394397490800166  4.8526822500000000   F   F   F
  8.0053324999999997  4.4745612490800166  1.6175607500000000   F   F   F
 11.2074654999999996  4.4745612490800166  1.6175607500000000   F   F   F
  6.3882635697995829  3.2351215000000000 10.0699984847147945   T   T   T
  9.6230098405499618  3.2351215000000000 10.0698206295804304   T   T   T
  6.4043173766297992  0.0000000000000000  6.8569710134817203   T   T   T
  9.6039725966272584  0.0000000000000000  6.8530592036080797   T   T   T
  8.0043070169653969  5.2104582722211266 11.1631872303605970   T   T   T
 11.1779725533680878  5.2328215708560020 11.3588115573890640   T   T   T
  8.0028477103397702  1.9927777841538465  8.0855999883373393   T   T   T
 11.2151508817454868  1.9911732390324410  8.0814934348460685   T   T   T
  6.4281165806298661  3.2351215000000000 12.5036750089903901   T   T   T
  9.5828490952493990  3.2351215000000000 12.5043622321061143   T   T   T
  6.3673673982061656  0.0000000000000000  9.3300947814847905   T   T   T
  9.6399186259422365  0.0000000000000000  9.3261242593721203   T   T   T
  8.0043070169653969  1.2597847277788734 11.1631872303605970   T   T   T
 11.1779725533680878  1.2374214291439987 11.3588115573890640   T   T   T
  8.0028477103397702  4.4774652158461530  8.0855999883373393   T   T   T
 11.2151508817454868  4.4790697609675574  8.0814934348460685   T   T   T
  9.0062843321698303  0.0000000000000000 13.2141572080035061   T   T   T
  7.0141711115433161  0.0000000000000000 13.2141857099033597   T   T   T
