Ir  O Ir  O 
 1.0000000000000000
    12.8085319999999996    0.0000000000000000    0.0000000000000000
     0.0000000000000000    6.4702430000000000    0.0000000000000000
     0.0000000000000000    0.0000000000000000   25.8809719999999999
  16  34  16  34
Selective dynamics
Cartesian
  1.6010664999999999  3.2351215000000000  4.8526822500000000   F   F   F
  4.8031994999999998  3.2351215000000000  4.8526822500000000   F   F   F
  1.6010664999999999  0.0000000000000000  1.6175607500000000   F   F   F
  4.8031994999999998  0.0000000000000000  1.6175607500000000   F   F   F
  0.0000000000000000  3.2351215000000000  1.6175607500000000   F   F   F
  3.2021329999999999  3.2351215000000000  1.6175607500000000   F   F   F
  0.0000000000000000  0.0000000000000000  4.8526822500000000   F   F   F
  3.2021329999999999  0.0000000000000000  4.8526822500000000   F   F   F
  1.6023014219282088  3.2351215000000000 11.3409185982026557   T   T   T
  4.8052978814564549  3.2351215000000000 11.3587681895992212   T   T   T
  1.6003948922822313  0.0000000000000000  8.1101586449840699   T   T   T
  4.7851623732028070  0.0000000000000000  8.0895950830420489   T   T   T
  0.0037223431734939  3.2351215000000000  8.1020649863779415   T   T   T
  3.1993510892613868  3.2351215000000000  8.1027558716913042   T   T   T
 -0.0229797178492277  0.0000000000000000 11.4557563859131992   T   T   T
  3.2225891207609054  0.0000000000000000 11.4577754181342986   T   T   T
  0.0000000000000000  3.2351215000000000  3.6132425009199376   F   F   F
  3.2021329999999999  3.2351215000000000  3.6132425009199376   F   F   F
  0.0000000000000000  0.0000000000000000  0.3781210009199379   F   F   F
  3.2021329999999999  0.0000000000000000  0.3781210009199379   F   F   F
  1.6010664999999999  5.2308032509199833  4.8526822500000000   F   F   F
  4.8031994999999998  5.2308032509199833  4.8526822500000000   F   F   F
  1.6010664999999999  1.9956817509199831  1.6175607500000000   F   F   F
  4.8031994999999998  1.9956817509199831  1.6175607500000000   F   F   F
  0.0000000000000000  3.2351215000000000  6.0921219990800619   F   F   F
  3.2021329999999999  3.2351215000000000  6.0921219990800619   F   F   F
  0.0000000000000000  0.0000000000000000  2.8570004990800624   F   F   F
  3.2021329999999999  0.0000000000000000  2.8570004990800624   F   F   F
  1.6010664999999999  1.2394397490800166  4.8526822500000000   F   F   F
  4.8031994999999998  1.2394397490800166  4.8526822500000000   F   F   F
  1.6010664999999999  4.4745612490800166  1.6175607500000000   F   F   F
  4.8031994999999998  4.4745612490800166  1.6175607500000000   F   F   F
 -0.0021865524934397  3.2351215000000000 10.0922714879969249   T   T   T
  3.2077342148577128  3.2351215000000000 10.0917960462774197   T   T   T
  0.0114977019132917  0.0000000000000000  6.8509640520388064   T   T   T
  3.1896150332691371  0.0000000000000000  6.8520445981149507   T   T   T
  1.6001215022644975  5.2383761348155851 11.2933118347509769   T   T   T
  4.8453753354491758  5.2327317439084933 11.4067909351614514   T   T   T
  1.5994022582151814  1.9901124469272271  8.1009539145784721   T   T   T
  4.7960737018246418  1.9908147455906215  8.0806540158343942   T   T   T
  0.0069407423031289  3.2351215000000000 12.5257452912706757   T   T   T
  3.1977801399642711  3.2351215000000000 12.5299269645619766   T   T   T
 -0.0088263560169284  0.0000000000000000  9.3586934794945389   T   T   T
  3.2092857463405484  0.0000000000000000  9.3592925246480316   T   T   T
  1.6001215022644975  1.2318668651844142 11.2933118347509769   T   T   T
  4.8453753354491758  1.2375112560915056 11.4067909351614514   T   T   T
  1.5994022582151814  4.4801305530727715  8.1009539145784721   T   T   T
  4.7960737018246418  4.4794282544093784  8.0806540158343942   T   T   T
  3.1613908322790132  0.0000000000000000 13.2503334416622884   T   T   T
  0.0475949625839573  0.0000000000000000 13.2494238706283181   T   T   T
  8.0053324999999997  3.2351215000000000  4.8526822500000000   F   F   F
 11.2074654999999996  3.2351215000000000  4.8526822500000000   F   F   F
  8.0053324999999997  0.0000000000000000  1.6175607500000000   F   F   F
 11.2074654999999996  0.0000000000000000  1.6175607500000000   F   F   F
  6.4042659999999998  3.2351215000000000  1.6175607500000000   F   F   F
  9.6063989999999997  3.2351215000000000  1.6175607500000000   F   F   F
  6.4042659999999998  0.0000000000000000  4.8526822500000000   F   F   F
  9.6063989999999997  0.0000000000000000  4.8526822500000000   F   F   F
  8.0043762094874911  3.2351215000000000 11.2800485497669420   T   T   T
 11.2056365796671162  3.2351215000000000 11.3571502976618266   T   T   T
  8.0033135854557020  0.0000000000000000  8.1020826842225020   T   T   T
 11.2246604797812406  0.0000000000000000  8.0870027970924667   T   T   T
  6.3978238849977656  3.2351215000000000  8.0890619235963488   T   T   T
  9.6127442289067826  3.2351215000000000  8.0889522316428675   T   T   T
  6.4795548249015100  0.0000000000000000 11.3464802144138783   T   T   T
  9.5285735627906778  0.0000000000000000 11.3426982979531967   T   T   T
  6.4042659999999998  3.2351215000000000  3.6132425009199376   F   F   F
  9.6063989999999997  3.2351215000000000  3.6132425009199376   F   F   F
  6.4042659999999998  0.0000000000000000  0.3781210009199379   F   F   F
  9.6063989999999997  0.0000000000000000  0.3781210009199379   F   F   F
  8.0053324999999997  5.2308032509199833  4.8526822500000000   F   F   F
 11.2074654999999996  5.2308032509199833  4.8526822500000000   F   F   F
  8.0053324999999997  1.9956817509199831  1.6175607500000000   F   F   F
 11.2074654999999996  1.9956817509199831  1.6175607500000000   F   F   F
  6.4042659999999998  3.2351215000000000  6.0921219990800619   F   F   F
  9.6063989999999997  3.2351215000000000  6.0921219990800619   F   F   F
  6.4042659999999998  0.0000000000000000  2.8570004990800624   F   F   F
  9.6063989999999997  0.0000000000000000  2.8570004990800624   F   F   F
  8.0053324999999997  1.2394397490800166  4.8526822500000000   F   F   F
 11.2074654999999996  1.2394397490800166  4.8526822500000000   F   F   F
  8.0053324999999997  4.4745612490800166  1.6175607500000000   F   F   F
 11.2074654999999996  4.4745612490800166  1.6175607500000000   F   F   F
  6.3798490956430562  3.2351215000000000 10.0649136172666243   T   T   T
  9.6311649778359136  3.2351215000000000 10.0646287725730055   T   T   T
  6.4041911856544909  0.0000000000000000  6.8572613053347471   T   T   T
  9.6028107851011768  0.0000000000000000  6.8537587010275205   T   T   T
  8.0025651487176148  5.2005220461218480 11.1100822178644574   T   T   T
 11.1640665244973771  5.2340930683900462 11.4024652373585820   T   T   T
  8.0025657346239978  1.9942050273701162  8.0843376448871691   T   T   T
 11.2180898452830871  1.9917961455916120  8.0782192406410527   T   T   T
  6.4365080753163948  3.2351215000000000 12.4985474458616732   T   T   T
  9.5709879871880599  3.2351215000000000 12.4984534905688829   T   T   T
  6.3488641744842091  0.0000000000000000  9.3270331291081572   T   T   T
  9.6566798799585882  0.0000000000000000  9.3226422193217768   T   T   T
  8.0025651487176148  1.2697209538781522 11.1100822178644574   T   T   T
 11.1640665244973771  1.2361499316099542 11.4024652373585820   T   T   T
  8.0025657346239978  4.4760379726298822  8.0843376448871691   T   T   T
 11.2180898452830871  4.4784468544083857  8.0782192406410527   T   T   T
  8.7065845882636310  0.0000000000000000 13.2160367395542195   T   T   T
  7.3145357239209945  0.0000000000000000 13.2183923107381194   T   T   T
