Ir64 O139                               
   1.00000000000000     
    12.8085319999999996    0.0000000000000000    0.0000000000000000
     0.0000000000000000   12.9404859999999999    0.0000000000000000
     0.0000000000000000    0.0000000000000000   25.8809719999999999
   Ir   O 
    64   139
Selective dynamics
Direct
  0.1250000000000000  0.2500000000000000  0.1875000000000000   F   F   F
  0.3750000000000000  0.2500000000000000  0.1875000000000000   F   F   F
  0.1250000000000000  0.0000000000000000  0.0625000000000000   F   F   F
  0.3750000000000000  0.0000000000000000  0.0625000000000000   F   F   F
  0.0000000000000000  0.2500000000000000  0.0625000000000000   F   F   F
  0.2500000000000000  0.2500000000000000  0.0625000000000000   F   F   F
  0.0000000000000000  0.0000000000000000  0.1875000000000000   F   F   F
  0.2500000000000000  0.0000000000000000  0.1875000000000000   F   F   F
  0.1247168097482287  0.2483625161509060  0.4378129730302499   T   T   T
  0.3746095380445795  0.2483816622572199  0.4376915644427516   T   T   T
  0.1248663632535356  0.9991968943416529  0.3126995126162152   T   T   T
  0.3749197492044070  0.9991722169645372  0.3126804109056154   T   T   T
 -0.0001720862272100  0.2491577602745772  0.3128255135516703   T   T   T
  0.2498520426223554  0.2491561177170678  0.3127519790657915   T   T   T
 -0.0003458885009948 -0.0016541166040239  0.4410555922312005   T   T   T
  0.2498327239869612 -0.0015237015917707  0.4410459526523811   T   T   T
  0.6250000000000000  0.2500000000000000  0.1875000000000000   F   F   F
  0.8750000000000000  0.2500000000000000  0.1875000000000000   F   F   F
  0.6250000000000000  0.0000000000000000  0.0625000000000000   F   F   F
  0.8750000000000000  0.0000000000000000  0.0625000000000000   F   F   F
  0.5000000000000000  0.2500000000000000  0.0625000000000000   F   F   F
  0.7500000000000000  0.2500000000000000  0.0625000000000000   F   F   F
  0.5000000000000000  0.0000000000000000  0.1875000000000000   F   F   F
  0.7500000000000000  0.0000000000000000  0.1875000000000000   F   F   F
  0.6244217634974869  0.2488167988362231  0.4382452884528633   T   T   T
  0.8749491917790575  0.2486237912929232  0.4380270647283502   T   T   T
  0.6248969373611176 -0.0007529540985792  0.3126788067613502   T   T   T
  0.8749320038185847  0.9992585569991209  0.3127120230903189   T   T   T
  0.4999134297653688  0.2491164758007619  0.3128510150947948   T   T   T
  0.7498295390120372  0.2493200475674422  0.3130106530283481   T   T   T
  0.4999036029598708  0.9984614449496841  0.4408505095764420   T   T   T
  0.7498601521429664  0.9984149759025496  0.4408145044252227   T   T   T
  0.1250000000000000  0.7500000000000000  0.1875000000000000   F   F   F
  0.3750000000000000  0.7500000000000000  0.1875000000000000   F   F   F
  0.1250000000000000  0.5000000000000000  0.0625000000000000   F   F   F
  0.3750000000000000  0.5000000000000000  0.0625000000000000   F   F   F
  0.0000000000000000  0.7500000000000000  0.0625000000000000   F   F   F
  0.2500000000000000  0.7500000000000000  0.0625000000000000   F   F   F
  0.0000000000000000  0.5000000000000000  0.1875000000000000   F   F   F
  0.2500000000000000  0.5000000000000000  0.1875000000000000   F   F   F
  0.1247463636006831  0.7484708072313071  0.4377747144499236   T   T   T
  0.3746467556741100  0.7486309991197374  0.4375647419230683   T   T   T
  0.1247713444884768  0.4991451463448996  0.3126699440838553   T   T   T
  0.3749380314006572  0.4991315972290701  0.3127139396419213   T   T   T
 -0.0001889703245588  0.7492238672901107  0.3128242363716598   T   T   T
  0.2498310111383871  0.7491657807995638  0.3127437210230641   T   T   T
 -0.0002284804963586  0.4984002347284568  0.4416277708495510   T   T   T
  0.2494576990599088  0.4985111246689698  0.4406750542024596   T   T   T
  0.6250000000000000  0.7500000000000000  0.1875000000000000   F   F   F
  0.8750000000000000  0.7500000000000000  0.1875000000000000   F   F   F
  0.6250000000000000  0.5000000000000000  0.0625000000000000   F   F   F
  0.8750000000000000  0.5000000000000000  0.0625000000000000   F   F   F
  0.5000000000000000  0.7500000000000000  0.0625000000000000   F   F   F
  0.7500000000000000  0.7500000000000000  0.0625000000000000   F   F   F
  0.5000000000000000  0.5000000000000000  0.1875000000000000   F   F   F
  0.7500000000000000  0.5000000000000000  0.1875000000000000   F   F   F
  0.6245237534457323  0.7481229524295588  0.4380656256120838   T   T   T
  0.8749573016286643  0.7481092998915578  0.4379629152929362   T   T   T
  0.6245900772226398  0.4991080449067871  0.3127582142398664   T   T   T
  0.8751075971251953  0.4992158466172843  0.3127782136816269   T   T   T
  0.4999051488089278  0.7491475109837024  0.3128185861842256   T   T   T
  0.7498128339177380  0.7491525795964326  0.3129345981670463   T   T   T
  0.4989098198441784  0.4985532678842423  0.4414279560352155   T   T   T
  0.7496546781507167  0.4984116518724476  0.4393807344267496   T   T   T
  0.0000000000000000  0.2500000000000000  0.1396099999999976   F   F   F
  0.2500000000000000  0.2500000000000000  0.1396099999999976   F   F   F
  0.0000000000000000  0.0000000000000000  0.0146099999999976   F   F   F
  0.2500000000000000  0.0000000000000000  0.0146099999999976   F   F   F
  0.1250000000000000  0.4042200000000022  0.1875000000000000   F   F   F
  0.3750000000000000  0.4042200000000022  0.1875000000000000   F   F   F
  0.1250000000000000  0.1542200000000022  0.0625000000000000   F   F   F
  0.3750000000000000  0.1542200000000022  0.0625000000000000   F   F   F
  0.0000000000000000  0.2500000000000000  0.2353900000000024   F   F   F
  0.2500000000000000  0.2500000000000000  0.2353900000000024   F   F   F
  0.0000000000000000  0.0000000000000000  0.1103900000000024   F   F   F
  0.2500000000000000  0.0000000000000000  0.1103900000000024   F   F   F
  0.1250000000000000  0.0957799999999978  0.1875000000000000   F   F   F
  0.3750000000000000  0.0957799999999978  0.1875000000000000   F   F   F
  0.1250000000000000  0.3457799999999978  0.0625000000000000   F   F   F
  0.3750000000000000  0.3457799999999978  0.0625000000000000   F   F   F
 -0.0001209320767452  0.2482206318402101  0.3893859806220590   T   T   T
  0.2496582000260250  0.2485066459206296  0.3892872685855532   T   T   T
 -0.0000673705602324  0.9998119982051455  0.2648883493219988   T   T   T
  0.2499077065843546  0.9996403407481622  0.2647866221118364   T   T   T
  0.1244233878332051  0.4026981641997627  0.4358578276334563   T   T   T
  0.3742151391933452  0.4026759833147946  0.4350013466948540   T   T   T
  0.1248107265102687  0.1531582986525305  0.3124210389053346   T   T   T
  0.3749694741205477  0.1531674211285501  0.3124579169306782   T   T   T
  0.0000115639847621  0.2482300046027380  0.4834147689319001   T   T   T
  0.2497007062206261  0.2486576712080958  0.4832860550646897   T   T   T
 -0.0000652838591067  0.9990105124577762  0.3607652677599669   T   T   T
  0.2498852837172837  0.9987815937511045  0.3607168374904872   T   T   T
  0.1246206808564426  0.0938842453099027  0.4361712813477022   T   T   T
  0.3748789676092943  0.0940028301433253  0.4359444824910839   T   T   T
  0.1246287284059678  0.3451623652007228  0.3124851478522829   T   T   T
  0.3750616539108205  0.3451292766301743  0.3124891406144516   T   T   T
  0.5000000000000000  0.2500000000000000  0.1396099999999976   F   F   F
  0.7500000000000000  0.2500000000000000  0.1396099999999976   F   F   F
  0.5000000000000000  0.0000000000000000  0.0146099999999976   F   F   F
  0.7500000000000000  0.0000000000000000  0.0146099999999976   F   F   F
  0.6250000000000000  0.4042200000000022  0.1875000000000000   F   F   F
  0.8750000000000000  0.4042200000000022  0.1875000000000000   F   F   F
  0.6250000000000000  0.1542200000000022  0.0625000000000000   F   F   F
  0.8750000000000000  0.1542200000000022  0.0625000000000000   F   F   F
  0.5000000000000000  0.2500000000000000  0.2353900000000024   F   F   F
  0.7500000000000000  0.2500000000000000  0.2353900000000024   F   F   F
  0.5000000000000000  0.0000000000000000  0.1103900000000024   F   F   F
  0.7500000000000000  0.0000000000000000  0.1103900000000024   F   F   F
  0.6250000000000000  0.0957799999999978  0.1875000000000000   F   F   F
  0.8750000000000000  0.0957799999999978  0.1875000000000000   F   F   F
  0.6250000000000000  0.3457799999999978  0.0625000000000000   F   F   F
  0.8750000000000000  0.3457799999999978  0.0625000000000000   F   F   F
  0.4998069087840452  0.2483201854101020  0.3894401475915371   T   T   T
  0.7495326186660666  0.2494143848596752  0.3897020878990926   T   T   T
  0.4999389395247033 -0.0002481948541188  0.2648750328726062   T   T   T
  0.7499567347925042  0.9996812578252317  0.2647846302534480   T   T   T
  0.6234320441960446  0.4034129389720957  0.4384036750031699   T   T   T
  0.8759665365633009  0.4024758257926597  0.4370388093793549   T   T   T
  0.6249010732471736  0.1532319413102064  0.3124966971248596   T   T   T
  0.8749066011923955  0.1532896029215506  0.3125339567021306   T   T   T
  0.4990580952683230  0.2479577973703388  0.4834586691868745   T   T   T
  0.7499141916752702  0.2485774933508900  0.4838435750816915   T   T   T
  0.4999249822538392  0.9989495357070596  0.3606963987465752   T   T   T
  0.7499156929885904  0.9988658644587124  0.3606795062407809   T   T   T
  0.6248198421934958  0.0941000258370209  0.4358343737120164   T   T   T
  0.8747838720068901  0.0941146455326353  0.4359308682143025   T   T   T
  0.6246400511972116  0.3451326751663095  0.3127623411662676   T   T   T
  0.8750117234904807  0.3452534039489807  0.3127842698570976   T   T   T
  0.7501408893607209  0.9986433111492626  0.5102667854975618   T   T   T
  0.0000000000000000  0.7500000000000000  0.1396099999999976   F   F   F
  0.2500000000000000  0.7500000000000000  0.1396099999999976   F   F   F
  0.0000000000000000  0.5000000000000000  0.0146099999999976   F   F   F
  0.2500000000000000  0.5000000000000000  0.0146099999999976   F   F   F
  0.1250000000000000  0.9042200000000022  0.1875000000000000   F   F   F
  0.3750000000000000  0.9042200000000022  0.1875000000000000   F   F   F
  0.1250000000000000  0.6542200000000022  0.0625000000000000   F   F   F
  0.3750000000000000  0.6542200000000022  0.0625000000000000   F   F   F
  0.0000000000000000  0.7500000000000000  0.2353900000000024   F   F   F
  0.2500000000000000  0.7500000000000000  0.2353900000000024   F   F   F
  0.0000000000000000  0.5000000000000000  0.1103900000000024   F   F   F
  0.2500000000000000  0.5000000000000000  0.1103900000000024   F   F   F
  0.1250000000000000  0.5957799999999978  0.1875000000000000   F   F   F
  0.3750000000000000  0.5957799999999978  0.1875000000000000   F   F   F
  0.1250000000000000  0.8457799999999978  0.0625000000000000   F   F   F
  0.3750000000000000  0.8457799999999978  0.0625000000000000   F   F   F
 -0.0001598592067181  0.7484569942986549  0.3893745784976487   T   T   T
  0.2496913354721724  0.7486660940447707  0.3892340192577657   T   T   T
  0.0000775322871727  0.4996901813979073  0.2648080125912605   T   T   T
  0.2498433626960657  0.4996364452384868  0.2647616542695903   T   T   T
  0.1246187635497691  0.9028924479729997  0.4358174006108196   T   T   T
  0.3749668468051668  0.9030047358066321  0.4355585735483121   T   T   T
  0.1247131111332890  0.6531444085143471  0.3124329620297490   T   T   T
  0.3749812870961802  0.6531819758352473  0.3123986066604519   T   T   T
 -0.0000187028907538  0.7483827976987985  0.4833837896549145   T   T   T
  0.2498851402224258  0.7490065099378275  0.4831830043971548   T   T   T
 -0.0001884473338929  0.4986740783440413  0.3609222930040204   T   T   T
  0.2497194109171011  0.4986915940101067  0.3605428773881332   T   T   T
  0.1244177042964417  0.5941092947516330  0.4359317872604255   T   T   T
  0.3741916558145805  0.5944045949419315  0.4347285966200010   T   T   T
  0.1246583835522651  0.8451707024998997  0.3125041394514208   T   T   T
  0.3750392302696796  0.8451494147004516  0.3124967248239022   T   T   T
  0.5000000000000000  0.7500000000000000  0.1396099999999976   F   F   F
  0.7500000000000000  0.7500000000000000  0.1396099999999976   F   F   F
  0.5000000000000000  0.5000000000000000  0.0146099999999976   F   F   F
  0.7500000000000000  0.5000000000000000  0.0146099999999976   F   F   F
  0.6250000000000000  0.9042200000000022  0.1875000000000000   F   F   F
  0.8750000000000000  0.9042200000000022  0.1875000000000000   F   F   F
  0.6250000000000000  0.6542200000000022  0.0625000000000000   F   F   F
  0.8750000000000000  0.6542200000000022  0.0625000000000000   F   F   F
  0.5000000000000000  0.7500000000000000  0.2353900000000024   F   F   F
  0.7500000000000000  0.7500000000000000  0.2353900000000024   F   F   F
  0.5000000000000000  0.5000000000000000  0.1103900000000024   F   F   F
  0.7500000000000000  0.5000000000000000  0.1103900000000024   F   F   F
  0.6250000000000000  0.5957799999999978  0.1875000000000000   F   F   F
  0.8750000000000000  0.5957799999999978  0.1875000000000000   F   F   F
  0.6250000000000000  0.8457799999999978  0.0625000000000000   F   F   F
  0.8750000000000000  0.8457799999999978  0.0625000000000000   F   F   F
  0.4998460955391953  0.7483931915808232  0.3893537202596574   T   T   T
  0.7496709184120059  0.7481429114162802  0.3895685980827678   T   T   T
  0.4997955993925595  0.4997179617448102  0.2648442178933659   T   T   T
  0.7498531498272167  0.4996589225835437  0.2648465044459277   T   T   T
  0.6248927909607224  0.9027552835108245  0.4354780641513635   T   T   T
  0.8747488695429890  0.9026805465573946  0.4354934717165777   T   T   T
  0.6247691656649148  0.6531199863446728  0.3126178720229040   T   T   T
  0.8749747254847114  0.6532306930984070  0.3125810538933247   T   T   T
  0.4991815187332828  0.7484139171937908  0.4832670320874510   T   T   T
  0.7498591008275046  0.7482990421574574  0.4837210576523001   T   T   T
  0.5000589525563821  0.4984392822794951  0.3609945248938673   T   T   T
  0.7496307966045611  0.4988625763782222  0.3607566145213817   T   T   T
  0.6238419485996822  0.5936016577111031  0.4379974508599845   T   T   T
  0.8757872391101197  0.5941780925748813  0.4371993496207993   T   T   T
  0.6246695859855456  0.8451672537628192  0.3125050086714873   T   T   T
  0.8749382972646386  0.8452469009035323  0.3126442763243935   T   T   T
  0.2503790545887492  0.9986203008405270  0.5104691871473598   T   T   T
  0.2511612869565907  0.4989279145036214  0.5100605796081018   T   T   T
  0.7568517294258118  0.4974419557466314  0.5149833196109317   T   T   T
  0.9990254851789435  0.9976165094521595  0.5104695388692218   T   T   T
  0.4922109631004409  0.4996034561652355  0.5104840424741272   T   T   T
  0.4996863724640256  0.9978528702635620  0.5102922585322675   T   T   T
  0.0021589274621309  0.4985379599447409  0.5109475407055692   T   T   T
  0.6726804046175077  0.9637917274685681  0.6228945545032831   T   T   T
  0.5879986916102979  0.0074382712182669  0.6249053837696351   T   T   T
  0.6753066235192348  0.4914261875716345  0.5437123619475293   T   T   T
 
  0.00000000E+00  0.00000000E+00  0.00000000E+00
  0.00000000E+00  0.00000000E+00  0.00000000E+00
  0.00000000E+00  0.00000000E+00  0.00000000E+00
  0.00000000E+00  0.00000000E+00  0.00000000E+00
  0.00000000E+00  0.00000000E+00  0.00000000E+00
  0.00000000E+00  0.00000000E+00  0.00000000E+00
  0.00000000E+00  0.00000000E+00  0.00000000E+00
  0.00000000E+00  0.00000000E+00  0.00000000E+00
  0.00000000E+00  0.00000000E+00  0.00000000E+00
  0.00000000E+00  0.00000000E+00  0.00000000E+00
  0.00000000E+00  0.00000000E+00  0.00000000E+00
  0.00000000E+00  0.00000000E+00  0.00000000E+00
  0.00000000E+00  0.00000000E+00  0.00000000E+00
  0.00000000E+00  0.00000000E+00  0.00000000E+00
  0.00000000E+00  0.00000000E+00  0.00000000E+00
  0.00000000E+00  0.00000000E+00  0.00000000E+00
  0.00000000E+00  0.00000000E+00  0.00000000E+00
  0.00000000E+00  0.00000000E+00  0.00000000E+00
  0.00000000E+00  0.00000000E+00  0.00000000E+00
  0.00000000E+00  0.00000000E+00  0.00000000E+00
  0.00000000E+00  0.00000000E+00  0.00000000E+00
  0.00000000E+00  0.00000000E+00  0.00000000E+00
  0.00000000E+00  0.00000000E+00  0.00000000E+00
  0.00000000E+00  0.00000000E+00  0.00000000E+00
  0.00000000E+00  0.00000000E+00  0.00000000E+00
  0.00000000E+00  0.00000000E+00  0.00000000E+00
  0.00000000E+00  0.00000000E+00  0.00000000E+00
  0.00000000E+00  0.00000000E+00  0.00000000E+00
  0.00000000E+00  0.00000000E+00  0.00000000E+00
  0.00000000E+00  0.00000000E+00  0.00000000E+00
  0.00000000E+00  0.00000000E+00  0.00000000E+00
  0.00000000E+00  0.00000000E+00  0.00000000E+00
  0.00000000E+00  0.00000000E+00  0.00000000E+00
  0.00000000E+00  0.00000000E+00  0.00000000E+00
  0.00000000E+00  0.00000000E+00  0.00000000E+00
  0.00000000E+00  0.00000000E+00  0.00000000E+00
  0.00000000E+00  0.00000000E+00  0.00000000E+00
  0.00000000E+00  0.00000000E+00  0.00000000E+00
  0.00000000E+00  0.00000000E+00  0.00000000E+00
  0.00000000E+00  0.00000000E+00  0.00000000E+00
  0.00000000E+00  0.00000000E+00  0.00000000E+00
  0.00000000E+00  0.00000000E+00  0.00000000E+00
  0.00000000E+00  0.00000000E+00  0.00000000E+00
  0.00000000E+00  0.00000000E+00  0.00000000E+00
  0.00000000E+00  0.00000000E+00  0.00000000E+00
  0.00000000E+00  0.00000000E+00  0.00000000E+00
  0.00000000E+00  0.00000000E+00  0.00000000E+00
  0.00000000E+00  0.00000000E+00  0.00000000E+00
  0.00000000E+00  0.00000000E+00  0.00000000E+00
  0.00000000E+00  0.00000000E+00  0.00000000E+00
  0.00000000E+00  0.00000000E+00  0.00000000E+00
  0.00000000E+00  0.00000000E+00  0.00000000E+00
  0.00000000E+00  0.00000000E+00  0.00000000E+00
  0.00000000E+00  0.00000000E+00  0.00000000E+00
  0.00000000E+00  0.00000000E+00  0.00000000E+00
  0.00000000E+00  0.00000000E+00  0.00000000E+00
  0.00000000E+00  0.00000000E+00  0.00000000E+00
  0.00000000E+00  0.00000000E+00  0.00000000E+00
  0.00000000E+00  0.00000000E+00  0.00000000E+00
  0.00000000E+00  0.00000000E+00  0.00000000E+00
  0.00000000E+00  0.00000000E+00  0.00000000E+00
  0.00000000E+00  0.00000000E+00  0.00000000E+00
  0.00000000E+00  0.00000000E+00  0.00000000E+00
  0.00000000E+00  0.00000000E+00  0.00000000E+00
  0.00000000E+00  0.00000000E+00  0.00000000E+00
  0.00000000E+00  0.00000000E+00  0.00000000E+00
  0.00000000E+00  0.00000000E+00  0.00000000E+00
  0.00000000E+00  0.00000000E+00  0.00000000E+00
  0.00000000E+00  0.00000000E+00  0.00000000E+00
  0.00000000E+00  0.00000000E+00  0.00000000E+00
  0.00000000E+00  0.00000000E+00  0.00000000E+00
  0.00000000E+00  0.00000000E+00  0.00000000E+00
  0.00000000E+00  0.00000000E+00  0.00000000E+00
  0.00000000E+00  0.00000000E+00  0.00000000E+00
  0.00000000E+00  0.00000000E+00  0.00000000E+00
  0.00000000E+00  0.00000000E+00  0.00000000E+00
  0.00000000E+00  0.00000000E+00  0.00000000E+00
  0.00000000E+00  0.00000000E+00  0.00000000E+00
  0.00000000E+00  0.00000000E+00  0.00000000E+00
  0.00000000E+00  0.00000000E+00  0.00000000E+00
  0.00000000E+00  0.00000000E+00  0.00000000E+00
  0.00000000E+00  0.00000000E+00  0.00000000E+00
  0.00000000E+00  0.00000000E+00  0.00000000E+00
  0.00000000E+00  0.00000000E+00  0.00000000E+00
  0.00000000E+00  0.00000000E+00  0.00000000E+00
  0.00000000E+00  0.00000000E+00  0.00000000E+00
  0.00000000E+00  0.00000000E+00  0.00000000E+00
  0.00000000E+00  0.00000000E+00  0.00000000E+00
  0.00000000E+00  0.00000000E+00  0.00000000E+00
  0.00000000E+00  0.00000000E+00  0.00000000E+00
  0.00000000E+00  0.00000000E+00  0.00000000E+00
  0.00000000E+00  0.00000000E+00  0.00000000E+00
  0.00000000E+00  0.00000000E+00  0.00000000E+00
  0.00000000E+00  0.00000000E+00  0.00000000E+00
  0.00000000E+00  0.00000000E+00  0.00000000E+00
  0.00000000E+00  0.00000000E+00  0.00000000E+00
  0.00000000E+00  0.00000000E+00  0.00000000E+00
  0.00000000E+00  0.00000000E+00  0.00000000E+00
  0.00000000E+00  0.00000000E+00  0.00000000E+00
  0.00000000E+00  0.00000000E+00  0.00000000E+00
  0.00000000E+00  0.00000000E+00  0.00000000E+00
  0.00000000E+00  0.00000000E+00  0.00000000E+00
  0.00000000E+00  0.00000000E+00  0.00000000E+00
  0.00000000E+00  0.00000000E+00  0.00000000E+00
  0.00000000E+00  0.00000000E+00  0.00000000E+00
  0.00000000E+00  0.00000000E+00  0.00000000E+00
  0.00000000E+00  0.00000000E+00  0.00000000E+00
  0.00000000E+00  0.00000000E+00  0.00000000E+00
  0.00000000E+00  0.00000000E+00  0.00000000E+00
  0.00000000E+00  0.00000000E+00  0.00000000E+00
  0.00000000E+00  0.00000000E+00  0.00000000E+00
  0.00000000E+00  0.00000000E+00  0.00000000E+00
  0.00000000E+00  0.00000000E+00  0.00000000E+00
  0.00000000E+00  0.00000000E+00  0.00000000E+00
  0.00000000E+00  0.00000000E+00  0.00000000E+00
  0.00000000E+00  0.00000000E+00  0.00000000E+00
  0.00000000E+00  0.00000000E+00  0.00000000E+00
  0.00000000E+00  0.00000000E+00  0.00000000E+00
  0.00000000E+00  0.00000000E+00  0.00000000E+00
  0.00000000E+00  0.00000000E+00  0.00000000E+00
  0.00000000E+00  0.00000000E+00  0.00000000E+00
  0.00000000E+00  0.00000000E+00  0.00000000E+00
  0.00000000E+00  0.00000000E+00  0.00000000E+00
  0.00000000E+00  0.00000000E+00  0.00000000E+00
  0.00000000E+00  0.00000000E+00  0.00000000E+00
  0.00000000E+00  0.00000000E+00  0.00000000E+00
  0.00000000E+00  0.00000000E+00  0.00000000E+00
  0.00000000E+00  0.00000000E+00  0.00000000E+00
  0.00000000E+00  0.00000000E+00  0.00000000E+00
  0.00000000E+00  0.00000000E+00  0.00000000E+00
  0.00000000E+00  0.00000000E+00  0.00000000E+00
  0.00000000E+00  0.00000000E+00  0.00000000E+00
  0.00000000E+00  0.00000000E+00  0.00000000E+00
  0.00000000E+00  0.00000000E+00  0.00000000E+00
  0.00000000E+00  0.00000000E+00  0.00000000E+00
  0.00000000E+00  0.00000000E+00  0.00000000E+00
  0.00000000E+00  0.00000000E+00  0.00000000E+00
  0.00000000E+00  0.00000000E+00  0.00000000E+00
  0.00000000E+00  0.00000000E+00  0.00000000E+00
  0.00000000E+00  0.00000000E+00  0.00000000E+00
  0.00000000E+00  0.00000000E+00  0.00000000E+00
  0.00000000E+00  0.00000000E+00  0.00000000E+00
  0.00000000E+00  0.00000000E+00  0.00000000E+00
  0.00000000E+00  0.00000000E+00  0.00000000E+00
  0.00000000E+00  0.00000000E+00  0.00000000E+00
  0.00000000E+00  0.00000000E+00  0.00000000E+00
  0.00000000E+00  0.00000000E+00  0.00000000E+00
  0.00000000E+00  0.00000000E+00  0.00000000E+00
  0.00000000E+00  0.00000000E+00  0.00000000E+00
  0.00000000E+00  0.00000000E+00  0.00000000E+00
  0.00000000E+00  0.00000000E+00  0.00000000E+00
  0.00000000E+00  0.00000000E+00  0.00000000E+00
  0.00000000E+00  0.00000000E+00  0.00000000E+00
  0.00000000E+00  0.00000000E+00  0.00000000E+00
  0.00000000E+00  0.00000000E+00  0.00000000E+00
  0.00000000E+00  0.00000000E+00  0.00000000E+00
  0.00000000E+00  0.00000000E+00  0.00000000E+00
  0.00000000E+00  0.00000000E+00  0.00000000E+00
  0.00000000E+00  0.00000000E+00  0.00000000E+00
  0.00000000E+00  0.00000000E+00  0.00000000E+00
  0.00000000E+00  0.00000000E+00  0.00000000E+00
  0.00000000E+00  0.00000000E+00  0.00000000E+00
  0.00000000E+00  0.00000000E+00  0.00000000E+00
  0.00000000E+00  0.00000000E+00  0.00000000E+00
  0.00000000E+00  0.00000000E+00  0.00000000E+00
  0.00000000E+00  0.00000000E+00  0.00000000E+00
  0.00000000E+00  0.00000000E+00  0.00000000E+00
  0.00000000E+00  0.00000000E+00  0.00000000E+00
  0.00000000E+00  0.00000000E+00  0.00000000E+00
  0.00000000E+00  0.00000000E+00  0.00000000E+00
  0.00000000E+00  0.00000000E+00  0.00000000E+00
  0.00000000E+00  0.00000000E+00  0.00000000E+00
  0.00000000E+00  0.00000000E+00  0.00000000E+00
  0.00000000E+00  0.00000000E+00  0.00000000E+00
  0.00000000E+00  0.00000000E+00  0.00000000E+00
  0.00000000E+00  0.00000000E+00  0.00000000E+00
  0.00000000E+00  0.00000000E+00  0.00000000E+00
  0.00000000E+00  0.00000000E+00  0.00000000E+00
  0.00000000E+00  0.00000000E+00  0.00000000E+00
  0.00000000E+00  0.00000000E+00  0.00000000E+00
  0.00000000E+00  0.00000000E+00  0.00000000E+00
  0.00000000E+00  0.00000000E+00  0.00000000E+00
  0.00000000E+00  0.00000000E+00  0.00000000E+00
  0.00000000E+00  0.00000000E+00  0.00000000E+00
  0.00000000E+00  0.00000000E+00  0.00000000E+00
  0.00000000E+00  0.00000000E+00  0.00000000E+00
  0.00000000E+00  0.00000000E+00  0.00000000E+00
  0.00000000E+00  0.00000000E+00  0.00000000E+00
  0.00000000E+00  0.00000000E+00  0.00000000E+00
  0.00000000E+00  0.00000000E+00  0.00000000E+00
  0.00000000E+00  0.00000000E+00  0.00000000E+00
  0.00000000E+00  0.00000000E+00  0.00000000E+00
  0.00000000E+00  0.00000000E+00  0.00000000E+00
  0.00000000E+00  0.00000000E+00  0.00000000E+00
  0.00000000E+00  0.00000000E+00  0.00000000E+00
  0.00000000E+00  0.00000000E+00  0.00000000E+00
  0.00000000E+00  0.00000000E+00  0.00000000E+00
  0.00000000E+00  0.00000000E+00  0.00000000E+00
  0.00000000E+00  0.00000000E+00  0.00000000E+00
  0.00000000E+00  0.00000000E+00  0.00000000E+00
  0.00000000E+00  0.00000000E+00  0.00000000E+00
  0.00000000E+00  0.00000000E+00  0.00000000E+00
  0.00000000E+00  0.00000000E+00  0.00000000E+00
