Ir  O Ir  O                             
   1.00000000000000     
    12.8085317611999994    0.0000000000000000    0.0000000000000000
     0.0000000000000000   12.9404859999999999    0.0000000000000000
     0.0000000000000000    0.0000000000000000   25.8809719085999994
   Ir   O    Ir   O 
    32    69    32    70
Selective dynamics
Direct
  0.1250000000000000  0.2499999991151824  0.1875000000000000   F   F   F
  0.6250000000000000  0.2499999991151824  0.1875000000000000   F   F   F
  0.3750000000000000  0.2499999991151824  0.1875000000000000   F   F   F
  0.8750000000000000  0.2499999991151824  0.1875000000000000   F   F   F
  0.1250000000000000  0.0000000000000000  0.0625000000000000   F   F   F
  0.6250000000000000  0.0000000000000000  0.0625000000000000   F   F   F
  0.3750000000000000  0.0000000000000000  0.0625000000000000   F   F   F
  0.8750000000000000  0.0000000000000000  0.0625000000000000   F   F   F
  0.0000000000000000  0.2499999991151824  0.0625000000000000   F   F   F
  0.5000000000000000  0.2499999991151824  0.0625000000000000   F   F   F
  0.2500000000000000  0.2499999991151824  0.0625000000000000   F   F   F
  0.7500000000000000  0.2499999991151824  0.0625000000000000   F   F   F
  0.0000000000000000  0.0000000000000000  0.1875000000000000   F   F   F
  0.5000000000000000  0.0000000000000000  0.1875000000000000   F   F   F
  0.2500000000000000  0.0000000000000000  0.1875000000000000   F   F   F
  0.7500000000000000  0.0000000000000000  0.1875000000000000   F   F   F
  0.1248513491587012  0.2503912411618899  0.4371769199738397   T   T   T
  0.6249818775487824  0.2226357425436948  0.5012624268275618   T   T   T
  0.3747623280538611  0.2474717116747723  0.4364031365539711   T   T   T
  0.8751164871903261  0.2474541608207167  0.4363850259334059   T   T   T
  0.1249168225292624  0.0004518947806271  0.3126723911449790   T   T   T
  0.6248382346591846  0.0010260039380224  0.3132629269051288   T   T   T
  0.3752930408588267  0.0012818155518641  0.3128664615824768   T   T   T
  0.8745524138745537  0.0012011503653834  0.3128584899013916   T   T   T
  0.0000561168118372  0.2508153784073507  0.3122071736651987   T   T   T
  0.4989707764584039  0.2508383233021377  0.3143481481232578   T   T   T
  0.2499759372236842  0.2508785875348571  0.3121756604916892   T   T   T
  0.7510412425756168  0.2507907313145638  0.3142765364281352   T   T   T
  0.0022664922325594  0.9986585866197020  0.4408367228212145   T   T   T
  0.5020457877222479  0.0004108359331128  0.4425400349823724   T   T   T
  0.2476239445708963  0.9985707706134836  0.4409071638375421   T   T   T
  0.7476732846484406  0.0003367640364196  0.4424131070939363   T   T   T
  0.0000000000000000  0.2499999991151824  0.1396100070000017   F   F   F
  0.5000000000000000  0.2499999991151824  0.1396100070000017   F   F   F
  0.2500000000000000  0.2499999991151824  0.1396100070000017   F   F   F
  0.7500000000000000  0.2499999991151824  0.1396100070000017   F   F   F
  0.0000000000000000  0.0000000000000000  0.0146099999999976   F   F   F
  0.5000000000000000  0.0000000000000000  0.0146099999999976   F   F   F
  0.2500000000000000  0.0000000000000000  0.0146099999999976   F   F   F
  0.7500000000000000  0.0000000000000000  0.0146099999999976   F   F   F
  0.1250000000000000  0.4042200135693506  0.1875000000000000   F   F   F
  0.6250000000000000  0.4042200135693506  0.1875000000000000   F   F   F
  0.3750000000000000  0.4042200135693506  0.1875000000000000   F   F   F
  0.8750000000000000  0.4042200135693506  0.1875000000000000   F   F   F
  0.1250000000000000  0.1542199994541704  0.0625000000000000   F   F   F
  0.6250000000000000  0.1542199994541704  0.0625000000000000   F   F   F
  0.3750000000000000  0.1542199994541704  0.0625000000000000   F   F   F
  0.8750000000000000  0.1542199994541704  0.0625000000000000   F   F   F
  0.0000000000000000  0.2499999991151824  0.2353899929999983   F   F   F
  0.5000000000000000  0.2499999991151824  0.2353899929999983   F   F   F
  0.2500000000000000  0.2499999991151824  0.2353899929999983   F   F   F
  0.7500000000000000  0.2499999991151824  0.2353899929999983   F   F   F
  0.0000000000000000  0.0000000000000000  0.1103900000000024   F   F   F
  0.5000000000000000  0.0000000000000000  0.1103900000000024   F   F   F
  0.2500000000000000  0.0000000000000000  0.1103900000000024   F   F   F
  0.7500000000000000  0.0000000000000000  0.1103900000000024   F   F   F
  0.1250000000000000  0.0957799996610120  0.1875000000000000   F   F   F
  0.6250000000000000  0.0957799996610120  0.1875000000000000   F   F   F
  0.3750000000000000  0.0957799996610120  0.1875000000000000   F   F   F
  0.8750000000000000  0.0957799996610120  0.1875000000000000   F   F   F
  0.1250000000000000  0.3457799837761897  0.0625000000000000   F   F   F
  0.6250000000000000  0.3457799837761897  0.0625000000000000   F   F   F
  0.3750000000000000  0.3457799837761897  0.0625000000000000   F   F   F
  0.8750000000000000  0.3457799837761897  0.0625000000000000   F   F   F
  0.9983247148003449  0.2512973939692269  0.3886829250371522   T   T   T
  0.4933625817532272  0.2489991413264456  0.3878412365489678   T   T   T
  0.2516047448348150  0.2517465928016557  0.3886459093287676   T   T   T
  0.7568017066659140  0.2491687282445694  0.3877229337647379   T   T   T
  0.9997506563289327  0.0001377073552576  0.2648685196104908   T   T   T
  0.5003026680510008  0.0005650834322902  0.2650165403376111   T   T   T
  0.2502532606213252  0.0002606552408168  0.2647987475322215   T   T   T
  0.7494816333201328  0.0009142436698669  0.2649584016492752   T   T   T
  0.1244396640474272  0.4041954684535011  0.4378891799122769   T   T   T
  0.6248783696342820  0.4106035708019824  0.4359904756730830   T   T   T
  0.3765108761112056  0.4034329291254715  0.4339665597677161   T   T   T
  0.8731902309509139  0.4034162813990173  0.4338449238945506   T   T   T
  0.1248912508603168  0.1546008937445671  0.3122489497381553   T   T   T
  0.6248592924748538  0.1553962832727968  0.3134395980996839   T   T   T
  0.3748880504507570  0.1551692713161945  0.3114067582347497   T   T   T
  0.8754967729810600  0.1550550830375254  0.3115766415209766   T   T   T
  0.9993279811691619  0.2483218634019441  0.4821842245930463   T   T   T
  0.4832497870690793  0.2360560193465300  0.4887379880833716   T   T   T
  0.2504103111385307  0.2488295852884376  0.4821225788202929   T   T   T
  0.7666921358344279  0.2360005656910366  0.4886407332084011   T   T   T
 -0.0000332064074959  0.0008287487307392  0.3606075760351722   T   T   T
  0.5004853207011044  0.0025093352455318  0.3615534028059074   T   T   T
  0.2498707257069651  0.0010692582071180  0.3605671340275060   T   T   T
  0.7491340400927397  0.0022523610076662  0.3615317309325594   T   T   T
  0.1249150991071005  0.0960542496222545  0.4359986363480847   T   T   T
  0.6249105565623216  0.1016985276475015  0.4462988654059358   T   T   T
  0.3738642489842754  0.0929040375231853  0.4341642418565398   T   T   T
  0.8756790379433115  0.0929596062520452  0.4342158962716589   T   T   T
  0.1249036255074472  0.3470843487112533  0.3123928234862426   T   T   T
  0.6247958398725375  0.3463341208381844  0.3138971911712540   T   T   T
  0.3748845004781401  0.3467253051734917  0.3118094366286716   T   T   T
  0.8753564866512659  0.3467035599107168  0.3118709881919731   T   T   T
  0.2530007316047231  0.9989020602568032  0.5099110266609338   T   T   T
  0.7570442362259887  0.9978402895993185  0.5113143915929448   T   T   T
  0.9972100782430536  0.9998221281234446  0.5098688995440154   T   T   T
  0.4931237137770219  0.9984372363087084  0.5114948981896664   T   T   T
  0.6253215879295126  0.2638880820147104  0.5652453787732707   T   T   T
  0.1250000000000000  0.7499999973455402  0.1875000000000000   F   F   F
  0.6250000000000000  0.7499999973455402  0.1875000000000000   F   F   F
  0.3750000000000000  0.7499999973455402  0.1875000000000000   F   F   F
  0.8750000000000000  0.7499999973455402  0.1875000000000000   F   F   F
  0.1250000000000000  0.4999999982303578  0.0625000000000000   F   F   F
  0.6250000000000000  0.4999999982303578  0.0625000000000000   F   F   F
  0.3750000000000000  0.4999999982303578  0.0625000000000000   F   F   F
  0.8750000000000000  0.4999999982303578  0.0625000000000000   F   F   F
  0.0000000000000000  0.7499999973455402  0.0625000000000000   F   F   F
  0.5000000000000000  0.7499999973455402  0.0625000000000000   F   F   F
  0.2500000000000000  0.7499999973455402  0.0625000000000000   F   F   F
  0.7500000000000000  0.7499999973455402  0.0625000000000000   F   F   F
  0.0000000000000000  0.4999999982303578  0.1875000000000000   F   F   F
  0.5000000000000000  0.4999999982303578  0.1875000000000000   F   F   F
  0.2500000000000000  0.4999999982303578  0.1875000000000000   F   F   F
  0.7500000000000000  0.4999999982303578  0.1875000000000000   F   F   F
  0.1248818713311330  0.7179888256708236  0.5011509661913361   T   T   T
  0.6249840180967676  0.7218136183494837  0.5016023619653902   T   T   T
  0.3745780385884391  0.7466604934430263  0.4341479326135806   T   T   T
  0.8751710739263123  0.7467748838118793  0.4340868888655554   T   T   T
  0.1248495675850824  0.5009649318171857  0.3130216795225635   T   T   T
  0.6248723972664699  0.5008610626386896  0.3131584265587620   T   T   T
  0.3749249816295565  0.5009015599438658  0.3131293847793095   T   T   T
  0.8748852955988310  0.5008491469554051  0.3131370523946820   T   T   T
  0.9987034373996015  0.7507219148472797  0.3131778127175769   T   T   T
  0.4987386144908558  0.7508031884904741  0.3132094904000846   T   T   T
  0.2508755754301117  0.7507596754112875  0.3131407783522105   T   T   T
  0.7508830726154747  0.7507864996790412  0.3131479792915785   T   T   T
  0.9990531668774578  0.4986605266386028  0.4421393551394893   T   T   T
  0.5026182025540501  0.5001390529656817  0.4420616139826608   T   T   T
  0.2502112954614524  0.4986211709622745  0.4419841891091680   T   T   T
  0.7470271712845034  0.5001031669187912  0.4420925957743063   T   T   T
  0.0000000000000000  0.7499999973455402  0.1396100070000017   F   F   F
  0.5000000000000000  0.7499999973455402  0.1396100070000017   F   F   F
  0.2500000000000000  0.7499999973455402  0.1396100070000017   F   F   F
  0.7500000000000000  0.7499999973455402  0.1396100070000017   F   F   F
  0.0000000000000000  0.4999999982303578  0.0146099999999976   F   F   F
  0.5000000000000000  0.4999999982303578  0.0146099999999976   F   F   F
  0.2500000000000000  0.4999999982303578  0.0146099999999976   F   F   F
  0.7500000000000000  0.4999999982303578  0.0146099999999976   F   F   F
  0.1250000000000000  0.9042200117997155  0.1875000000000000   F   F   F
  0.6250000000000000  0.9042200117997155  0.1875000000000000   F   F   F
  0.3750000000000000  0.9042200117997155  0.1875000000000000   F   F   F
  0.8750000000000000  0.9042200117997155  0.1875000000000000   F   F   F
  0.1250000000000000  0.6542199976845282  0.0625000000000000   F   F   F
  0.6250000000000000  0.6542199976845282  0.0625000000000000   F   F   F
  0.3750000000000000  0.6542199976845282  0.0625000000000000   F   F   F
  0.8750000000000000  0.6542199976845282  0.0625000000000000   F   F   F
  0.0000000000000000  0.7499999973455402  0.2353899929999983   F   F   F
  0.5000000000000000  0.7499999973455402  0.2353899929999983   F   F   F
  0.2500000000000000  0.7499999973455402  0.2353899929999983   F   F   F
  0.7500000000000000  0.7499999973455402  0.2353899929999983   F   F   F
  0.0000000000000000  0.4999999982303578  0.1103900000000024   F   F   F
  0.5000000000000000  0.4999999982303578  0.1103900000000024   F   F   F
  0.2500000000000000  0.4999999982303578  0.1103900000000024   F   F   F
  0.7500000000000000  0.4999999982303578  0.1103900000000024   F   F   F
  0.1250000000000000  0.5957799978913698  0.1875000000000000   F   F   F
  0.6250000000000000  0.5957799978913698  0.1875000000000000   F   F   F
  0.3750000000000000  0.5957799978913698  0.1875000000000000   F   F   F
  0.8750000000000000  0.5957799978913698  0.1875000000000000   F   F   F
  0.1250000000000000  0.8457799820065475  0.0625000000000000   F   F   F
  0.6250000000000000  0.8457799820065475  0.0625000000000000   F   F   F
  0.3750000000000000  0.8457799820065475  0.0625000000000000   F   F   F
  0.8750000000000000  0.8457799820065475  0.0625000000000000   F   F   F
  0.9922859344047180  0.7501018969284470  0.3868204156094476   T   T   T
  0.4918853060194462  0.7503917235758799  0.3868536693786425   T   T   T
  0.2576049909677414  0.7501436128810793  0.3867310095691003   T   T   T
  0.7578689767659267  0.7503397611539957  0.3867121011457720   T   T   T
  0.9999185081415143  0.5001460696995451  0.2650222534193941   T   T   T
  0.5000093740603275  0.4999009441739970  0.2650687035005991   T   T   T
  0.2500071797176566  0.5000431609431548  0.2649854397570463   T   T   T
  0.7498748692602223  0.4998161786453929  0.2650194566723224   T   T   T
  0.1251160294703507  0.9079342352016937  0.4347204657827684   T   T   T
  0.6248361596534884  0.9109863447514044  0.4359577686519577   T   T   T
  0.3750937542470870  0.9030307178278748  0.4349123055103187   T   T   T
  0.8748491255295052  0.9031735985222192  0.4347711104217948   T   T   T
  0.1246136798266598  0.6548469254294575  0.3134729725230145   T   T   T
  0.6247459605599355  0.6550254876126477  0.3132102588998830   T   T   T
  0.3748187618338389  0.6548670835686120  0.3100548570185724   T   T   T
  0.8748397104363780  0.6548651528363660  0.3100616669751248   T   T   T
  0.9850890214289605  0.7343578965867549  0.4869631641981344   T   T   T
  0.4849532363985874  0.7358680621683172  0.4873653399287582   T   T   T
  0.2647611341080831  0.7340625922778902  0.4869148871342480   T   T   T
  0.7650173903814201  0.7356397582513250  0.4871734355008408   T   T   T
  0.0009059568454705  0.5010847216484215  0.3613767104760177   T   T   T
  0.5008411012170481  0.5024670438966544  0.3614045296188276   T   T   T
  0.2487743413752971  0.5012746978077267  0.3613572752989461   T   T   T
  0.7488916252557943  0.5022692701960713  0.3614209017770255   T   T   T
  0.1245220128768776  0.5983337627218303  0.4459817321339567   T   T   T
  0.6248763263380572  0.6019434608791960  0.4459091903826487   T   T   T
  0.3743209855121130  0.5914330570612714  0.4328917502045813   T   T   T
  0.8750846177736472  0.5916362983707353  0.4327335412233380   T   T   T
  0.1246918142533658  0.8463269862376573  0.3133465996991848   T   T   T
  0.6247185857618892  0.8465900174128824  0.3134273833848076   T   T   T
  0.3749792901360052  0.8469385075665515  0.3102355869096332   T   T   T
  0.8747467622577442  0.8468244314628682  0.3101847601350002   T   T   T
  0.2573014838803436  0.4958164613200214  0.5112864343945838   T   T   T
  0.7567818604759653  0.4982722659827489  0.5110321932981945   T   T   T
  0.9913591352646774  0.4964957510525191  0.5114858033870961   T   T   T
  0.4929533531624886  0.4989998643050817  0.5109853651589580   T   T   T
  0.1254575186159021  0.7523465174477137  0.5659489981805275   T   T   T
  0.6256935362265242  0.7592581284496545  0.5660143574553428   T   T   T
 
  0.00000000E+00  0.00000000E+00  0.00000000E+00
  0.00000000E+00  0.00000000E+00  0.00000000E+00
  0.00000000E+00  0.00000000E+00  0.00000000E+00
  0.00000000E+00  0.00000000E+00  0.00000000E+00
  0.00000000E+00  0.00000000E+00  0.00000000E+00
  0.00000000E+00  0.00000000E+00  0.00000000E+00
  0.00000000E+00  0.00000000E+00  0.00000000E+00
  0.00000000E+00  0.00000000E+00  0.00000000E+00
  0.00000000E+00  0.00000000E+00  0.00000000E+00
  0.00000000E+00  0.00000000E+00  0.00000000E+00
  0.00000000E+00  0.00000000E+00  0.00000000E+00
  0.00000000E+00  0.00000000E+00  0.00000000E+00
  0.00000000E+00  0.00000000E+00  0.00000000E+00
  0.00000000E+00  0.00000000E+00  0.00000000E+00
  0.00000000E+00  0.00000000E+00  0.00000000E+00
  0.00000000E+00  0.00000000E+00  0.00000000E+00
  0.00000000E+00  0.00000000E+00  0.00000000E+00
  0.00000000E+00  0.00000000E+00  0.00000000E+00
  0.00000000E+00  0.00000000E+00  0.00000000E+00
  0.00000000E+00  0.00000000E+00  0.00000000E+00
  0.00000000E+00  0.00000000E+00  0.00000000E+00
  0.00000000E+00  0.00000000E+00  0.00000000E+00
  0.00000000E+00  0.00000000E+00  0.00000000E+00
  0.00000000E+00  0.00000000E+00  0.00000000E+00
  0.00000000E+00  0.00000000E+00  0.00000000E+00
  0.00000000E+00  0.00000000E+00  0.00000000E+00
  0.00000000E+00  0.00000000E+00  0.00000000E+00
  0.00000000E+00  0.00000000E+00  0.00000000E+00
  0.00000000E+00  0.00000000E+00  0.00000000E+00
  0.00000000E+00  0.00000000E+00  0.00000000E+00
  0.00000000E+00  0.00000000E+00  0.00000000E+00
  0.00000000E+00  0.00000000E+00  0.00000000E+00
  0.00000000E+00  0.00000000E+00  0.00000000E+00
  0.00000000E+00  0.00000000E+00  0.00000000E+00
  0.00000000E+00  0.00000000E+00  0.00000000E+00
  0.00000000E+00  0.00000000E+00  0.00000000E+00
  0.00000000E+00  0.00000000E+00  0.00000000E+00
  0.00000000E+00  0.00000000E+00  0.00000000E+00
  0.00000000E+00  0.00000000E+00  0.00000000E+00
  0.00000000E+00  0.00000000E+00  0.00000000E+00
  0.00000000E+00  0.00000000E+00  0.00000000E+00
  0.00000000E+00  0.00000000E+00  0.00000000E+00
  0.00000000E+00  0.00000000E+00  0.00000000E+00
  0.00000000E+00  0.00000000E+00  0.00000000E+00
  0.00000000E+00  0.00000000E+00  0.00000000E+00
  0.00000000E+00  0.00000000E+00  0.00000000E+00
  0.00000000E+00  0.00000000E+00  0.00000000E+00
  0.00000000E+00  0.00000000E+00  0.00000000E+00
  0.00000000E+00  0.00000000E+00  0.00000000E+00
  0.00000000E+00  0.00000000E+00  0.00000000E+00
  0.00000000E+00  0.00000000E+00  0.00000000E+00
  0.00000000E+00  0.00000000E+00  0.00000000E+00
  0.00000000E+00  0.00000000E+00  0.00000000E+00
  0.00000000E+00  0.00000000E+00  0.00000000E+00
  0.00000000E+00  0.00000000E+00  0.00000000E+00
  0.00000000E+00  0.00000000E+00  0.00000000E+00
  0.00000000E+00  0.00000000E+00  0.00000000E+00
  0.00000000E+00  0.00000000E+00  0.00000000E+00
  0.00000000E+00  0.00000000E+00  0.00000000E+00
  0.00000000E+00  0.00000000E+00  0.00000000E+00
  0.00000000E+00  0.00000000E+00  0.00000000E+00
  0.00000000E+00  0.00000000E+00  0.00000000E+00
  0.00000000E+00  0.00000000E+00  0.00000000E+00
  0.00000000E+00  0.00000000E+00  0.00000000E+00
  0.00000000E+00  0.00000000E+00  0.00000000E+00
  0.00000000E+00  0.00000000E+00  0.00000000E+00
  0.00000000E+00  0.00000000E+00  0.00000000E+00
  0.00000000E+00  0.00000000E+00  0.00000000E+00
  0.00000000E+00  0.00000000E+00  0.00000000E+00
  0.00000000E+00  0.00000000E+00  0.00000000E+00
  0.00000000E+00  0.00000000E+00  0.00000000E+00
  0.00000000E+00  0.00000000E+00  0.00000000E+00
  0.00000000E+00  0.00000000E+00  0.00000000E+00
  0.00000000E+00  0.00000000E+00  0.00000000E+00
  0.00000000E+00  0.00000000E+00  0.00000000E+00
  0.00000000E+00  0.00000000E+00  0.00000000E+00
  0.00000000E+00  0.00000000E+00  0.00000000E+00
  0.00000000E+00  0.00000000E+00  0.00000000E+00
  0.00000000E+00  0.00000000E+00  0.00000000E+00
  0.00000000E+00  0.00000000E+00  0.00000000E+00
  0.00000000E+00  0.00000000E+00  0.00000000E+00
  0.00000000E+00  0.00000000E+00  0.00000000E+00
  0.00000000E+00  0.00000000E+00  0.00000000E+00
  0.00000000E+00  0.00000000E+00  0.00000000E+00
  0.00000000E+00  0.00000000E+00  0.00000000E+00
  0.00000000E+00  0.00000000E+00  0.00000000E+00
  0.00000000E+00  0.00000000E+00  0.00000000E+00
  0.00000000E+00  0.00000000E+00  0.00000000E+00
  0.00000000E+00  0.00000000E+00  0.00000000E+00
  0.00000000E+00  0.00000000E+00  0.00000000E+00
  0.00000000E+00  0.00000000E+00  0.00000000E+00
  0.00000000E+00  0.00000000E+00  0.00000000E+00
  0.00000000E+00  0.00000000E+00  0.00000000E+00
  0.00000000E+00  0.00000000E+00  0.00000000E+00
  0.00000000E+00  0.00000000E+00  0.00000000E+00
  0.00000000E+00  0.00000000E+00  0.00000000E+00
  0.00000000E+00  0.00000000E+00  0.00000000E+00
  0.00000000E+00  0.00000000E+00  0.00000000E+00
  0.00000000E+00  0.00000000E+00  0.00000000E+00
  0.00000000E+00  0.00000000E+00  0.00000000E+00
  0.00000000E+00  0.00000000E+00  0.00000000E+00
  0.00000000E+00  0.00000000E+00  0.00000000E+00
  0.00000000E+00  0.00000000E+00  0.00000000E+00
  0.00000000E+00  0.00000000E+00  0.00000000E+00
  0.00000000E+00  0.00000000E+00  0.00000000E+00
  0.00000000E+00  0.00000000E+00  0.00000000E+00
  0.00000000E+00  0.00000000E+00  0.00000000E+00
  0.00000000E+00  0.00000000E+00  0.00000000E+00
  0.00000000E+00  0.00000000E+00  0.00000000E+00
  0.00000000E+00  0.00000000E+00  0.00000000E+00
  0.00000000E+00  0.00000000E+00  0.00000000E+00
  0.00000000E+00  0.00000000E+00  0.00000000E+00
  0.00000000E+00  0.00000000E+00  0.00000000E+00
  0.00000000E+00  0.00000000E+00  0.00000000E+00
  0.00000000E+00  0.00000000E+00  0.00000000E+00
  0.00000000E+00  0.00000000E+00  0.00000000E+00
  0.00000000E+00  0.00000000E+00  0.00000000E+00
  0.00000000E+00  0.00000000E+00  0.00000000E+00
  0.00000000E+00  0.00000000E+00  0.00000000E+00
  0.00000000E+00  0.00000000E+00  0.00000000E+00
  0.00000000E+00  0.00000000E+00  0.00000000E+00
  0.00000000E+00  0.00000000E+00  0.00000000E+00
  0.00000000E+00  0.00000000E+00  0.00000000E+00
  0.00000000E+00  0.00000000E+00  0.00000000E+00
  0.00000000E+00  0.00000000E+00  0.00000000E+00
  0.00000000E+00  0.00000000E+00  0.00000000E+00
  0.00000000E+00  0.00000000E+00  0.00000000E+00
  0.00000000E+00  0.00000000E+00  0.00000000E+00
  0.00000000E+00  0.00000000E+00  0.00000000E+00
  0.00000000E+00  0.00000000E+00  0.00000000E+00
  0.00000000E+00  0.00000000E+00  0.00000000E+00
  0.00000000E+00  0.00000000E+00  0.00000000E+00
  0.00000000E+00  0.00000000E+00  0.00000000E+00
  0.00000000E+00  0.00000000E+00  0.00000000E+00
  0.00000000E+00  0.00000000E+00  0.00000000E+00
  0.00000000E+00  0.00000000E+00  0.00000000E+00
  0.00000000E+00  0.00000000E+00  0.00000000E+00
  0.00000000E+00  0.00000000E+00  0.00000000E+00
  0.00000000E+00  0.00000000E+00  0.00000000E+00
  0.00000000E+00  0.00000000E+00  0.00000000E+00
  0.00000000E+00  0.00000000E+00  0.00000000E+00
  0.00000000E+00  0.00000000E+00  0.00000000E+00
  0.00000000E+00  0.00000000E+00  0.00000000E+00
  0.00000000E+00  0.00000000E+00  0.00000000E+00
  0.00000000E+00  0.00000000E+00  0.00000000E+00
  0.00000000E+00  0.00000000E+00  0.00000000E+00
  0.00000000E+00  0.00000000E+00  0.00000000E+00
  0.00000000E+00  0.00000000E+00  0.00000000E+00
  0.00000000E+00  0.00000000E+00  0.00000000E+00
  0.00000000E+00  0.00000000E+00  0.00000000E+00
  0.00000000E+00  0.00000000E+00  0.00000000E+00
  0.00000000E+00  0.00000000E+00  0.00000000E+00
  0.00000000E+00  0.00000000E+00  0.00000000E+00
  0.00000000E+00  0.00000000E+00  0.00000000E+00
  0.00000000E+00  0.00000000E+00  0.00000000E+00
  0.00000000E+00  0.00000000E+00  0.00000000E+00
  0.00000000E+00  0.00000000E+00  0.00000000E+00
  0.00000000E+00  0.00000000E+00  0.00000000E+00
  0.00000000E+00  0.00000000E+00  0.00000000E+00
  0.00000000E+00  0.00000000E+00  0.00000000E+00
  0.00000000E+00  0.00000000E+00  0.00000000E+00
  0.00000000E+00  0.00000000E+00  0.00000000E+00
  0.00000000E+00  0.00000000E+00  0.00000000E+00
  0.00000000E+00  0.00000000E+00  0.00000000E+00
  0.00000000E+00  0.00000000E+00  0.00000000E+00
  0.00000000E+00  0.00000000E+00  0.00000000E+00
  0.00000000E+00  0.00000000E+00  0.00000000E+00
  0.00000000E+00  0.00000000E+00  0.00000000E+00
  0.00000000E+00  0.00000000E+00  0.00000000E+00
  0.00000000E+00  0.00000000E+00  0.00000000E+00
  0.00000000E+00  0.00000000E+00  0.00000000E+00
  0.00000000E+00  0.00000000E+00  0.00000000E+00
  0.00000000E+00  0.00000000E+00  0.00000000E+00
  0.00000000E+00  0.00000000E+00  0.00000000E+00
  0.00000000E+00  0.00000000E+00  0.00000000E+00
  0.00000000E+00  0.00000000E+00  0.00000000E+00
  0.00000000E+00  0.00000000E+00  0.00000000E+00
  0.00000000E+00  0.00000000E+00  0.00000000E+00
  0.00000000E+00  0.00000000E+00  0.00000000E+00
  0.00000000E+00  0.00000000E+00  0.00000000E+00
  0.00000000E+00  0.00000000E+00  0.00000000E+00
  0.00000000E+00  0.00000000E+00  0.00000000E+00
  0.00000000E+00  0.00000000E+00  0.00000000E+00
  0.00000000E+00  0.00000000E+00  0.00000000E+00
  0.00000000E+00  0.00000000E+00  0.00000000E+00
  0.00000000E+00  0.00000000E+00  0.00000000E+00
  0.00000000E+00  0.00000000E+00  0.00000000E+00
  0.00000000E+00  0.00000000E+00  0.00000000E+00
  0.00000000E+00  0.00000000E+00  0.00000000E+00
  0.00000000E+00  0.00000000E+00  0.00000000E+00
  0.00000000E+00  0.00000000E+00  0.00000000E+00
  0.00000000E+00  0.00000000E+00  0.00000000E+00
  0.00000000E+00  0.00000000E+00  0.00000000E+00
  0.00000000E+00  0.00000000E+00  0.00000000E+00
  0.00000000E+00  0.00000000E+00  0.00000000E+00
  0.00000000E+00  0.00000000E+00  0.00000000E+00
  0.00000000E+00  0.00000000E+00  0.00000000E+00
  0.00000000E+00  0.00000000E+00  0.00000000E+00
  0.00000000E+00  0.00000000E+00  0.00000000E+00
  0.00000000E+00  0.00000000E+00  0.00000000E+00
  0.00000000E+00  0.00000000E+00  0.00000000E+00
  0.00000000E+00  0.00000000E+00  0.00000000E+00
  0.00000000E+00  0.00000000E+00  0.00000000E+00
