Ir  O Ir  O
 1.0000000000000000
  12.8085319999999996   0.0000000000000000   0.0000000000000000
   0.0000000000000000   6.4702430000000000   0.0000000000000000
   0.0000000000000000   0.0000000000000000  25.8809719999999999
Ir  O Ir  O
16  34  16  34  
Selective dynamics
Direct
  0.1250000000000000  0.5000000000000000  0.1875000000000000 F F F
  0.3750000000000000  0.5000000000000000  0.1875000000000000 F F F
  0.1250000000000000  0.0000000000000000  0.0625000000000000 F F F
  0.3750000000000000  0.0000000000000000  0.0625000000000000 F F F
  0.0000000000000000  0.5000000000000000  0.0625000000000000 F F F
  0.2500000000000000  0.5000000000000000  0.0625000000000000 F F F
  0.0000000000000000  0.0000000000000000  0.1875000000000000 F F F
  0.2500000000000000  0.0000000000000000  0.1875000000000000 F F F
  0.1250758166052610  0.5000000000000000  0.4382550201988810 T T T
  0.3751972880132260  0.5000000000000000  0.4388848512377090 T T T
  0.1249368297800330  0.0000000000000000  0.3133470247337440 T T T
  0.3735737967923850  0.0000000000000000  0.3125184504824150 T T T
  0.0002587398121392  0.5000000000000000  0.3130786441889410 T T T
  0.2497765607181180  0.5000000000000000  0.3131066318060010 T T T
  0.9982576889256620  0.0000000000000000  0.4426125199936380 T T T
  0.2515601414685950  0.0000000000000000  0.4427007447728500 T T T
  0.0000000000000000  0.5000000000000000  0.1396099999999980 F F F
  0.2500000000000000  0.5000000000000000  0.1396099999999980 F F F
  0.0000000000000000  0.0000000000000000  0.0146099999999976 F F F
  0.2500000000000000  0.0000000000000000  0.0146099999999976 F F F
  0.1250000000000000  0.8084399999999970  0.1875000000000000 F F F
  0.3750000000000000  0.8084399999999970  0.1875000000000000 F F F
  0.1250000000000000  0.3084399999999970  0.0625000000000000 F F F
  0.3750000000000000  0.3084399999999970  0.0625000000000000 F F F
  0.0000000000000000  0.5000000000000000  0.2353900000000020 F F F
  0.2500000000000000  0.5000000000000000  0.2353900000000020 F F F
  0.0000000000000000  0.0000000000000000  0.1103900000000020 F F F
  0.2500000000000000  0.0000000000000000  0.1103900000000020 F F F
  0.1250000000000000  0.1915600000000030  0.1875000000000000 F F F
  0.3750000000000000  0.1915600000000030  0.1875000000000000 F F F
  0.1250000000000000  0.6915600000000030  0.0625000000000000 F F F
  0.3750000000000000  0.6915600000000030  0.0625000000000000 F F F
  0.9999543777895640  0.5000000000000000  0.3899539508628040 T T T
  0.2503740601173660  0.5000000000000000  0.3899410943098540 T T T
  0.0009015341466352  0.0000000000000000  0.2647153248069710 T T T
  0.2489822916759370  0.0000000000000000  0.2647527257667330 T T T
  0.1248355341284860  0.8095655198098090  0.4363718288891360 T T T
  0.3782024555965290  0.8087641475591670  0.4406628316113270 T T T
  0.1248853105754430  0.3075413670920070  0.3130567866928190 T T T
  0.3744533380062340  0.3077608258347550  0.3123046307024140 T T T
  0.0002619317966221  0.5000000000000000  0.4839584582765890 T T T
  0.2498570682549900  0.5000000000000000  0.4841046677421520 T T T
  0.9993638495378721  0.0000000000000000  0.3615047845752390 T T T
  0.2504644604909460  0.0000000000000000  0.3616203639902410 T T T
  0.1248355341284860  0.1904344801901910  0.4363718288891360 T T T
  0.3782024555965290  0.1912358524408260  0.4406628316113270 T T T
  0.1248853105754430  0.6924586329079930  0.3130567866928190 T T T
  0.3744533380062340  0.6922391741652451  0.3123046307024140 T T T
  0.2469239015712290  0.0000000000000000  0.5119842855192620 T T T
  0.0037852227054671  0.0000000000000000  0.5119041653658630 T T T
  0.6250000000000000  0.5000000000000000  0.1875000000000000 F F F
  0.8750000000000000  0.5000000000000000  0.1875000000000000 F F F
  0.6250000000000000  0.0000000000000000  0.0625000000000000 F F F
  0.8750000000000000  0.0000000000000000  0.0625000000000000 F F F
  0.5000000000000000  0.5000000000000000  0.0625000000000000 F F F
  0.7500000000000000  0.5000000000000000  0.0625000000000000 F F F
  0.5000000000000000  0.0000000000000000  0.1875000000000000 F F F
  0.7500000000000000  0.0000000000000000  0.1875000000000000 F F F
  0.6249336161881160  0.5000000000000000  0.4358645413737680 T T T
  0.8748459005662000  0.5000000000000000  0.4388534936070560 T T T
  0.6248181502703500  0.0000000000000000  0.3129857384673260 T T T
  0.8762889466845610  0.0000000000000000  0.3124347536152710 T T T
  0.4994764744464250  0.5000000000000000  0.3125668346526570 T T T
  0.7504045366763350  0.5000000000000000  0.3125393076213780 T T T
  0.5057714975887539  0.0000000000000000  0.4382982736784700 T T T
  0.7439614908289300  0.0000000000000000  0.4380938660672700 T T T
  0.5000000000000000  0.5000000000000000  0.1396099999999980 F F F
  0.7500000000000000  0.5000000000000000  0.1396099999999980 F F F
  0.5000000000000000  0.0000000000000000  0.0146099999999976 F F F
  0.7500000000000000  0.0000000000000000  0.0146099999999976 F F F
  0.6250000000000000  0.8084399999999970  0.1875000000000000 F F F
  0.8750000000000000  0.8084399999999970  0.1875000000000000 F F F
  0.6250000000000000  0.3084399999999970  0.0625000000000000 F F F
  0.8750000000000000  0.3084399999999970  0.0625000000000000 F F F
  0.5000000000000000  0.5000000000000000  0.2353900000000020 F F F
  0.7500000000000000  0.5000000000000000  0.2353900000000020 F F F
  0.5000000000000000  0.0000000000000000  0.1103900000000020 F F F
  0.7500000000000000  0.0000000000000000  0.1103900000000020 F F F
  0.6250000000000000  0.1915600000000030  0.1875000000000000 F F F
  0.8750000000000000  0.1915600000000030  0.1875000000000000 F F F
  0.6250000000000000  0.6915600000000030  0.0625000000000000 F F F
  0.8750000000000000  0.6915600000000030  0.0625000000000000 F F F
  0.4980747659579170  0.5000000000000000  0.3889262660143370 T T T
  0.7519115271375090  0.5000000000000000  0.3889226282448990 T T T
  0.5000161798662081  0.0000000000000000  0.2649362848417740 T T T
  0.7497833960792730  0.0000000000000000  0.2648052201357840 T T T
  0.6247248126829700  0.8037829250992770  0.4293102962183610 T T T
  0.8718023759903770  0.8091047293916060  0.4406303613839740 T T T
  0.6247533751685170  0.3082370067990540  0.3123969233323220 T T T
  0.8757110765585810  0.3078183090973430  0.3121625096133230 T T T
  0.5026401977879050  0.5000000000000000  0.4829619501007370 T T T
  0.7470870936411420  0.5000000000000000  0.4829674738285450 T T T
  0.4957403122450540  0.0000000000000000  0.3602579256417760 T T T
  0.7537314681338710  0.0000000000000000  0.3601338415866590 T T T
  0.6247248126829700  0.1962170749007230  0.4293102962183610 T T T
  0.8718023759903770  0.1908952706083940  0.4406303613839740 T T T
  0.6247533751685170  0.6917629932009460  0.3123969233323220 T T T
  0.8757110765585810  0.6921816909026570  0.3121625096133230 T T T
  0.6793896411873770  0.0000000000000000  0.5106013532801160 T T T
  0.5708515906118240  0.0000000000000000  0.5107042974739709 T T T
