ALGO = Fast
#DIPOL = 0.37555500250565294 0.2666500751695831 0.25114130344658214
EDIFF = 1e-06
EDIFFG = -0.05
ENCUT = 500
GGA = Rp
IBRION = 5
#POTIM = 0.01
ICHARG = 2
#IDIPOL = 3
ISIF = 2
ISMEAR = 0
ISPIN = 2
LCHARG = False
#LDIPOL = True
LREAL = Auto
LWAVE = False
MAGMOM = 97*0.6
NELM = 60
NELMIN = 4
#NPAR = 4
NSW = 500
PREC = Normal
SIGMA = 0.05
NFREE = 2
MAXMIX = 60
LVHAR=.TRUE.

#NEB calculations:
#IMAGES = 5
#SPRING = -5.0
#ICHAIN = 0
#LCLIMB = .TRUE.
#LSCALAPACK = .FALSE.
