Ir  O Ir  O 
 1.0000000000000000
    12.8085319999999996    0.0000000000000000    0.0000000000000000
     0.0000000000000000    6.4702430000000000    0.0000000000000000
     0.0000000000000000    0.0000000000000000   25.8809719999999999
Ir  O Ir  O
  15  32  16  34
Selective dynamics
Cartesian
  1.6010664999999999  3.2351215000000000  4.8526822500000000   F   F   F
  4.8031994999999998  3.2351215000000000  4.8526822500000000   F   F   F
  1.6010664999999999  0.0000000000000000  1.6175607500000000   F   F   F
  4.8031994999999998  0.0000000000000000  1.6175607500000000   F   F   F
  0.0000000000000000  3.2351215000000000  1.6175607500000000   F   F   F
  3.2021329999999999  3.2351215000000000  1.6175607500000000   F   F   F
  0.0000000000000000  0.0000000000000000  4.8526822500000000   F   F   F
  3.2021329999999999  0.0000000000000000  4.8526822500000000   F   F   F
  1.6210434892875827  3.2351215000000000 11.3936838762511297   F   F   F
  4.8078063802414084  3.2351215000000000 11.3586131033952142   F   F   F
  1.5610292833699175  0.0000000000000000  8.0757119739605372   F   F   F
  4.8229687753895893  0.0000000000000000  8.0845522971525501   F   F   F
 12.8072004163753501  3.2351215000000000  8.1139565282501156   F   F   F
  3.2014266494889219  3.2351215000000000  8.1069918867993493   F   F   F
  3.1088215127670535  0.0000000000000000 11.2454897966706344   F   F   F
  0.0000000000000000  3.2351215000000000  3.6132425009199376   F   F   F
  3.2021329999999999  3.2351215000000000  3.6132425009199376   F   F   F
  0.0000000000000000  0.0000000000000000  0.3781210009199379   F   F   F
  3.2021329999999999  0.0000000000000000  0.3781210009199379   F   F   F
  1.6010664999999999  5.2308032509199833  4.8526822500000000   F   F   F
  4.8031994999999998  5.2308032509199833  4.8526822500000000   F   F   F
  1.6010664999999999  1.9956817509199831  1.6175607500000000   F   F   F
  4.8031994999999998  1.9956817509199831  1.6175607500000000   F   F   F
  0.0000000000000000  3.2351215000000000  6.0921219990800619   F   F   F
  3.2021329999999999  3.2351215000000000  6.0921219990800619   F   F   F
  0.0000000000000000  0.0000000000000000  2.8570004990800624   F   F   F
  3.2021329999999999  0.0000000000000000  2.8570004990800624   F   F   F
  1.6010664999999999  1.2394397490800166  4.8526822500000000   F   F   F
  4.8031994999999998  1.2394397490800166  4.8526822500000000   F   F   F
  1.6010664999999999  4.4745612490800166  1.6175607500000000   F   F   F
  4.8031994999999998  4.4745612490800166  1.6175607500000000   F   F   F
  0.0043573507448564  3.2351215000000000 10.1108034542805729   F   F   F
  3.2154491491556478  3.2351215000000000 10.1015630574071409   F   F   F
 12.8051279167440200  0.0000000000000000  6.8285401271034019   F   F   F
  3.2113646823801005  0.0000000000000000  6.8474406396982603   F   F   F
  1.7556384670769196  5.1402969915908079 11.4546802370002965   F   F   F
  4.7657464131008949  5.2376175981325916 11.3299980231136761   F   F   F
  1.5935241900608454  1.9938061728217962  8.0938183777902921   F   F   F
  4.8086738497004102  1.9930851054817538  8.0944406810007923   F   F   F
 -0.0163107340284249  3.2351215000000000 12.5534657397076437   F   F   F
  3.2647731278790202  3.2351215000000000 12.5891438365968007   F   F   F
  0.0067163150657512  0.0000000000000000  9.2626277825731371   F   F   F
  3.1959817873653367  0.0000000000000000  9.2908300583305028   F   F   F
  1.7556384670769196  1.3299460084091914 11.4546802370002965   F   F   F
  4.7657464131008949  1.2326254018673646 11.3299980231136761   F   F   F
  1.5935241900608454  4.4764368271782056  8.0938183777902921   F   F   F
  4.8086738497004102  4.4771578945182462  8.0944406810007923   F   F   F
  8.0053324999999997  3.2351215000000000  4.8526822500000000   F   F   F
 11.2074654999999996  3.2351215000000000  4.8526822500000000   F   F   F
  8.0053324999999997  0.0000000000000000  1.6175607500000000   F   F   F
 11.2074654999999996  0.0000000000000000  1.6175607500000000   F   F   F
  6.4042659999999998  3.2351215000000000  1.6175607500000000   F   F   F
  9.6063989999999997  3.2351215000000000  1.6175607500000000   F   F   F
  6.4042659999999998  0.0000000000000000  4.8526822500000000   F   F   F
  9.6063989999999997  0.0000000000000000  4.8526822500000000   F   F   F
  7.9962989065508667  3.2351215000000000 11.3377792848380103   F   F   F
 11.1933592629370633  3.2351215000000000 11.3737512115189645   F   F   F
  8.0139323238722433  0.0000000000000000  8.1000098061627401   F   F   F
 11.2305716643944589  0.0000000000000000  8.0888588791509175   F   F   F
  6.4057888637343634  3.2351215000000000  8.1019075614089555   F   F   F
  9.6051728668917598  3.2351215000000000  8.1009549622666110   F   F   F
  6.3953641274196800  0.0000000000000000 11.4236730033235894   F   F   F
  9.6866241478484127  0.0000000000000000 11.4436705218846306   F   F   F
  6.4042659999999998  3.2351215000000000  3.6132425009199376   F   F   F
  9.6063989999999997  3.2351215000000000  3.6132425009199376   F   F   F
  6.4042659999999998  0.0000000000000000  0.3781210009199379   F   F   F
  9.6063989999999997  0.0000000000000000  0.3781210009199379   F   F   F
  8.0053324999999997  5.2308032509199833  4.8526822500000000   F   F   F
 11.2074654999999996  5.2308032509199833  4.8526822500000000   F   F   F
  8.0053324999999997  1.9956817509199831  1.6175607500000000   F   F   F
 11.2074654999999996  1.9956817509199831  1.6175607500000000   F   F   F
  6.4042659999999998  3.2351215000000000  6.0921219990800619   F   F   F
  9.6063989999999997  3.2351215000000000  6.0921219990800619   F   F   F
  6.4042659999999998  0.0000000000000000  2.8570004990800624   F   F   F
  9.6063989999999997  0.0000000000000000  2.8570004990800624   F   F   F
  8.0053324999999997  1.2394397490800166  4.8526822500000000   F   F   F
 11.2074654999999996  1.2394397490800166  4.8526822500000000   F   F   F
  8.0053324999999997  4.4745612490800166  1.6175607500000000   F   F   F
 11.2074654999999996  4.4745612490800166  1.6175607500000000   F   F   F
  6.3981024926375021  3.2351215000000000 10.0857128252192627   F   F   F
  9.5779552911361634  3.2351215000000000 10.0842126190971513   F   F   F
  6.4135479336872203  0.0000000000000000  6.8501259294287546   F   F   F
  9.6010350651833853  0.0000000000000000  6.8531586393912427   F   F   F
  8.0152159774494649  5.2335558004738800 11.2733172862254456   F   F   F
 11.0970705756034445  5.1491672255948631 11.2972407639981363   F   F   F
  8.0055884918283908  1.9894773417851253  8.0896521142454016   F   F   F
 11.2101025805200507  1.9897715182657689  8.0884905739643145   F   F   F
  6.4163697350965041  3.2351215000000000 12.5179125843001238   F   F   F
  9.5715130640644865  3.2351215000000000 12.5459925136341095   F   F   F
  6.4037646619206967  0.0000000000000000  9.3510111190335810   F   F   F
  9.6209927533664477  0.0000000000000000  9.3305060089477685   F   F   F
  8.0152159774494649  1.2366871995261206 11.2733172862254456   F   F   F
 11.0970705756034445  1.3210757744051356 11.2972407639981363   F   F   F
  8.0055884918283908  4.4807656582148745  8.0896521142454016   F   F   F
 11.2101025805200507  4.4804714817342317  8.0884905739643145   F   F   F
  9.5361352584800176  0.0000000000000000 13.2245795820281593   T   T   T
  6.4174686488040491  0.0000000000000000 13.2158439616426211   T   T   T
