Ir  O Ir  O                             
   1.00000000000000     
    12.8085319999999996    0.0000000000000000    0.0000000000000000
     0.0000000000000000    6.4702430000000000    0.0000000000000000
     0.0000000000000000    0.0000000000000000   25.8809719999999999
   Ir   O    Ir   O 
    16    34    16    34
Selective dynamics
Direct
  0.1250000000000000  0.5000000000000000  0.1875000000000000   F   F   F
  0.3750000000000000  0.5000000000000000  0.1875000000000000   F   F   F
  0.1250000000000000  0.0000000000000000  0.0625000000000000   F   F   F
  0.3750000000000000  0.0000000000000000  0.0625000000000000   F   F   F
  0.0000000000000000  0.5000000000000000  0.0625000000000000   F   F   F
  0.2500000000000000  0.5000000000000000  0.0625000000000000   F   F   F
  0.0000000000000000  0.0000000000000000  0.1875000000000000   F   F   F
  0.2500000000000000  0.0000000000000000  0.1875000000000000   F   F   F
  0.1249535840509068  0.5000000000000000  0.4382272191460714   F   F   F
  0.3752830073233469  0.5000000000000000  0.4388902682919991   F   F   F
  0.1249179701296583  0.0000000000000000  0.3133353356912920   F   F   F
  0.3740783231485025  0.0000000000000000  0.3126123053153975   F   F   F
  0.0001375379637167  0.5000000000000000  0.3131295044761515   F   F   F
  0.2497899674570689  0.5000000000000000  0.3131080172494691   F   F   F
  0.9983418544009837  0.0000000000000000  0.4424684216236159   F   F   F
  0.2511640984439865  0.0000000000000000  0.4425042682685714   F   F   F
  0.0000000000000000  0.5000000000000000  0.1396099999999976   F   F   F
  0.2500000000000000  0.5000000000000000  0.1396099999999976   F   F   F
  0.0000000000000000  0.0000000000000000  0.0146099999999976   F   F   F
  0.2500000000000000  0.0000000000000000  0.0146099999999976   F   F   F
  0.1250000000000000  0.8084399999999974  0.1875000000000000   F   F   F
  0.3750000000000000  0.8084399999999974  0.1875000000000000   F   F   F
  0.1250000000000000  0.3084399999999974  0.0625000000000000   F   F   F
  0.3750000000000000  0.3084399999999974  0.0625000000000000   F   F   F
  0.0000000000000000  0.5000000000000000  0.2353900000000024   F   F   F
  0.2500000000000000  0.5000000000000000  0.2353900000000024   F   F   F
  0.0000000000000000  0.0000000000000000  0.1103900000000024   F   F   F
  0.2500000000000000  0.0000000000000000  0.1103900000000024   F   F   F
  0.1250000000000000  0.1915600000000026  0.1875000000000000   F   F   F
  0.3750000000000000  0.1915600000000026  0.1875000000000000   F   F   F
  0.1250000000000000  0.6915600000000026  0.0625000000000000   F   F   F
  0.3750000000000000  0.6915600000000026  0.0625000000000000   F   F   F
  0.9996060528416564  0.5000000000000000  0.3899710096585665   F   F   F
  0.2504275494962727  0.5000000000000000  0.3898769903496060   F   F   F
  0.0006642008210136  0.0000000000000000  0.2648355593279206   F   F   F
  0.2492038428509460  0.0000000000000000  0.2648184892916063   F   F   F
  0.1247219889885400  0.8094399181985779  0.4362776135450659   F   F   F
  0.3779771930501639  0.8091482917190831  0.4405267391900765   F   F   F
  0.1248195538536834  0.3076137041596851  0.3130100107433123   F   F   F
  0.3746150089689593  0.3076823418892829  0.3123216262882735   F   F   F
  0.0001982817100483  0.5000000000000000  0.4840308561140958   F   F   F
  0.2497688007718324  0.5000000000000000  0.4841223052999553   F   F   F
  0.9991929669125881  0.0000000000000000  0.3615700837896725   F   F   F
  0.2505901387623624  0.0000000000000000  0.3616167377743409   F   F   F
  0.1247219889885400  0.1905600818014221  0.4362776135450659   F   F   F
  0.3779771930501639  0.1908517082809169  0.4405267391900765   F   F   F
  0.1248195538536834  0.6923862958403078  0.3130100107433123   F   F   F
  0.3746150089689593  0.6923176581107100  0.3123216262882735   F   F   F
  0.2469774548528392  0.0000000000000000  0.5118705387406450   F   F   F
  0.0033229061268898  0.0000000000000000  0.5117861700199313   F   F   F
  0.6250000000000000  0.5000000000000000  0.1875000000000000   F   F   F
  0.8750000000000000  0.5000000000000000  0.1875000000000000   F   F   F
  0.6250000000000000  0.0000000000000000  0.0625000000000000   F   F   F
  0.8750000000000000  0.0000000000000000  0.0625000000000000   F   F   F
  0.5000000000000000  0.5000000000000000  0.0625000000000000   F   F   F
  0.7500000000000000  0.5000000000000000  0.0625000000000000   F   F   F
  0.5000000000000000  0.0000000000000000  0.1875000000000000   F   F   F
  0.7500000000000000  0.0000000000000000  0.1875000000000000   F   F   F
  0.6248401842229327  0.5000000000000000  0.4360305413893144   F   F   F
  0.8745031267214713  0.5000000000000000  0.4389305196109490   F   F   F
  0.6248000831237235  0.0000000000000000  0.3131497288721050   F   F   F
  0.8757249355700196  0.0000000000000000  0.3125696543369614   F   F   F
  0.4995336223772711  0.5000000000000000  0.3126120372520020   F   F   F
  0.7502842915233217  0.5000000000000000  0.3126284984021268   F   F   F
  0.5055013610932164  0.0000000000000000  0.4400722202630050   F   F   F
  0.7440312205065425  0.0000000000000000  0.4398981961718036   F   F   F
  0.5000000000000000  0.5000000000000000  0.1396099999999976   F   F   F
  0.7500000000000000  0.5000000000000000  0.1396099999999976   F   F   F
  0.5000000000000000  0.0000000000000000  0.0146099999999976   F   F   F
  0.7500000000000000  0.0000000000000000  0.0146099999999976   F   F   F
  0.6250000000000000  0.8084399999999974  0.1875000000000000   F   F   F
  0.8750000000000000  0.8084399999999974  0.1875000000000000   F   F   F
  0.6250000000000000  0.3084399999999974  0.0625000000000000   F   F   F
  0.8750000000000000  0.3084399999999974  0.0625000000000000   F   F   F
  0.5000000000000000  0.5000000000000000  0.2353900000000024   F   F   F
  0.7500000000000000  0.5000000000000000  0.2353900000000024   F   F   F
  0.5000000000000000  0.0000000000000000  0.1103900000000024   F   F   F
  0.7500000000000000  0.0000000000000000  0.1103900000000024   F   F   F
  0.6250000000000000  0.1915600000000026  0.1875000000000000   F   F   F
  0.8750000000000000  0.1915600000000026  0.1875000000000000   F   F   F
  0.6250000000000000  0.6915600000000026  0.0625000000000000   F   F   F
  0.8750000000000000  0.6915600000000026  0.0625000000000000   F   F   F
  0.4982737051239496  0.5000000000000000  0.3889152796852002   F   F   F
  0.7515791733413053  0.5000000000000000  0.3889746135249297   F   F   F
  0.5000278090685839  0.0000000000000000  0.2649565958442324   F   F   F
  0.7497650434448246  0.0000000000000000  0.2648420552494812   F   F   F
  0.6247325336712564  0.8049160417519232  0.4284210880863313   F   F   F
  0.8716508345835763  0.8092361503835193  0.4405564710988301   F   F   F
  0.6247235327881526  0.3080579928904257  0.3122977932852606   F   F   F
  0.8755140265360737  0.3078424653775116  0.3123171061267271   F   F   F
  0.5024714798880723  0.5000000000000000  0.4829845472342171   F   F   F
  0.7470396117574296  0.5000000000000000  0.4830824493171093   F   F   F
  0.4960545353721457  0.0000000000000000  0.3605287575349294   F   F   F
  0.7533494634812641  0.0000000000000000  0.3604002212019992   F   F   F
  0.6247325336712564  0.1950839582480768  0.4284210880863313   F   F   F
  0.8716508345835763  0.1907638496164807  0.4405564710988301   F   F   F
  0.6247235327881526  0.6919420071095672  0.3122977932852606   F   F   F
  0.8755140265360737  0.6921575346224813  0.3123171061267271   F   F   F
  0.6914543001902373  0.0000000000000000  0.5084363516567834   T   T   T
  0.5586609462671105  0.0000000000000000  0.5080185554733727   T   T   T
 
  0.00000000E+00  0.00000000E+00  0.00000000E+00
  0.00000000E+00  0.00000000E+00  0.00000000E+00
  0.00000000E+00  0.00000000E+00  0.00000000E+00
  0.00000000E+00  0.00000000E+00  0.00000000E+00
  0.00000000E+00  0.00000000E+00  0.00000000E+00
  0.00000000E+00  0.00000000E+00  0.00000000E+00
  0.00000000E+00  0.00000000E+00  0.00000000E+00
  0.00000000E+00  0.00000000E+00  0.00000000E+00
  0.00000000E+00  0.00000000E+00  0.00000000E+00
  0.00000000E+00  0.00000000E+00  0.00000000E+00
  0.00000000E+00  0.00000000E+00  0.00000000E+00
  0.00000000E+00  0.00000000E+00  0.00000000E+00
  0.00000000E+00  0.00000000E+00  0.00000000E+00
  0.00000000E+00  0.00000000E+00  0.00000000E+00
  0.00000000E+00  0.00000000E+00  0.00000000E+00
  0.00000000E+00  0.00000000E+00  0.00000000E+00
  0.00000000E+00  0.00000000E+00  0.00000000E+00
  0.00000000E+00  0.00000000E+00  0.00000000E+00
  0.00000000E+00  0.00000000E+00  0.00000000E+00
  0.00000000E+00  0.00000000E+00  0.00000000E+00
  0.00000000E+00  0.00000000E+00  0.00000000E+00
  0.00000000E+00  0.00000000E+00  0.00000000E+00
  0.00000000E+00  0.00000000E+00  0.00000000E+00
  0.00000000E+00  0.00000000E+00  0.00000000E+00
  0.00000000E+00  0.00000000E+00  0.00000000E+00
  0.00000000E+00  0.00000000E+00  0.00000000E+00
  0.00000000E+00  0.00000000E+00  0.00000000E+00
  0.00000000E+00  0.00000000E+00  0.00000000E+00
  0.00000000E+00  0.00000000E+00  0.00000000E+00
  0.00000000E+00  0.00000000E+00  0.00000000E+00
  0.00000000E+00  0.00000000E+00  0.00000000E+00
  0.00000000E+00  0.00000000E+00  0.00000000E+00
  0.00000000E+00  0.00000000E+00  0.00000000E+00
  0.00000000E+00  0.00000000E+00  0.00000000E+00
  0.00000000E+00  0.00000000E+00  0.00000000E+00
  0.00000000E+00  0.00000000E+00  0.00000000E+00
  0.00000000E+00  0.00000000E+00  0.00000000E+00
  0.00000000E+00  0.00000000E+00  0.00000000E+00
  0.00000000E+00  0.00000000E+00  0.00000000E+00
  0.00000000E+00  0.00000000E+00  0.00000000E+00
  0.00000000E+00  0.00000000E+00  0.00000000E+00
  0.00000000E+00  0.00000000E+00  0.00000000E+00
  0.00000000E+00  0.00000000E+00  0.00000000E+00
  0.00000000E+00  0.00000000E+00  0.00000000E+00
  0.00000000E+00  0.00000000E+00  0.00000000E+00
  0.00000000E+00  0.00000000E+00  0.00000000E+00
  0.00000000E+00  0.00000000E+00  0.00000000E+00
  0.00000000E+00  0.00000000E+00  0.00000000E+00
  0.00000000E+00  0.00000000E+00  0.00000000E+00
  0.00000000E+00  0.00000000E+00  0.00000000E+00
  0.00000000E+00  0.00000000E+00  0.00000000E+00
  0.00000000E+00  0.00000000E+00  0.00000000E+00
  0.00000000E+00  0.00000000E+00  0.00000000E+00
  0.00000000E+00  0.00000000E+00  0.00000000E+00
  0.00000000E+00  0.00000000E+00  0.00000000E+00
  0.00000000E+00  0.00000000E+00  0.00000000E+00
  0.00000000E+00  0.00000000E+00  0.00000000E+00
  0.00000000E+00  0.00000000E+00  0.00000000E+00
  0.00000000E+00  0.00000000E+00  0.00000000E+00
  0.00000000E+00  0.00000000E+00  0.00000000E+00
  0.00000000E+00  0.00000000E+00  0.00000000E+00
  0.00000000E+00  0.00000000E+00  0.00000000E+00
  0.00000000E+00  0.00000000E+00  0.00000000E+00
  0.00000000E+00  0.00000000E+00  0.00000000E+00
  0.00000000E+00  0.00000000E+00  0.00000000E+00
  0.00000000E+00  0.00000000E+00  0.00000000E+00
  0.00000000E+00  0.00000000E+00  0.00000000E+00
  0.00000000E+00  0.00000000E+00  0.00000000E+00
  0.00000000E+00  0.00000000E+00  0.00000000E+00
  0.00000000E+00  0.00000000E+00  0.00000000E+00
  0.00000000E+00  0.00000000E+00  0.00000000E+00
  0.00000000E+00  0.00000000E+00  0.00000000E+00
  0.00000000E+00  0.00000000E+00  0.00000000E+00
  0.00000000E+00  0.00000000E+00  0.00000000E+00
  0.00000000E+00  0.00000000E+00  0.00000000E+00
  0.00000000E+00  0.00000000E+00  0.00000000E+00
  0.00000000E+00  0.00000000E+00  0.00000000E+00
  0.00000000E+00  0.00000000E+00  0.00000000E+00
  0.00000000E+00  0.00000000E+00  0.00000000E+00
  0.00000000E+00  0.00000000E+00  0.00000000E+00
  0.00000000E+00  0.00000000E+00  0.00000000E+00
  0.00000000E+00  0.00000000E+00  0.00000000E+00
  0.00000000E+00  0.00000000E+00  0.00000000E+00
  0.00000000E+00  0.00000000E+00  0.00000000E+00
  0.00000000E+00  0.00000000E+00  0.00000000E+00
  0.00000000E+00  0.00000000E+00  0.00000000E+00
  0.00000000E+00  0.00000000E+00  0.00000000E+00
  0.00000000E+00  0.00000000E+00  0.00000000E+00
  0.00000000E+00  0.00000000E+00  0.00000000E+00
  0.00000000E+00  0.00000000E+00  0.00000000E+00
  0.00000000E+00  0.00000000E+00  0.00000000E+00
  0.00000000E+00  0.00000000E+00  0.00000000E+00
  0.00000000E+00  0.00000000E+00  0.00000000E+00
  0.00000000E+00  0.00000000E+00  0.00000000E+00
  0.00000000E+00  0.00000000E+00  0.00000000E+00
  0.00000000E+00  0.00000000E+00  0.00000000E+00
  0.00000000E+00  0.00000000E+00  0.00000000E+00
  0.00000000E+00  0.00000000E+00  0.00000000E+00
  0.00000000E+00  0.00000000E+00  0.00000000E+00
  0.00000000E+00  0.00000000E+00  0.00000000E+00
