Ir  O Ir  O 
 1.0000000000000000
    12.8085319999999996    0.0000000000000000    0.0000000000000000
     0.0000000000000000    6.4702430000000000    0.0000000000000000
     0.0000000000000000    0.0000000000000000   25.8809719999999999
   Ir  O Ir  O
  16  34  16  34
Selective dynamics
Cartesian
  1.6010664999999999  3.2351215000000000  4.8526822500000000   F   F   F
  4.8031994999999998  3.2351215000000000  4.8526822500000000   F   F   F
  1.6010664999999999  0.0000000000000000  1.6175607500000000   F   F   F
  4.8031994999999998  0.0000000000000000  1.6175607500000000   F   F   F
  0.0000000000000000  3.2351215000000000  1.6175607500000000   F   F   F
  3.2021329999999999  3.2351215000000000  1.6175607500000000   F   F   F
  0.0000000000000000  0.0000000000000000  4.8526822500000000   F   F   F
  3.2021329999999999  0.0000000000000000  4.8526822500000000   F   F   F
  1.6004719798307294  3.2351215000000000 11.3417463883572989   F   F   F
  4.8068244083573664  3.2351215000000000 11.3589067447376699   F   F   F
  1.6000158177807764  0.0000000000000000  8.1094230496369040   F   F   F
  4.7913941725539599  0.0000000000000000  8.0907103207232289   F   F   F
  0.0017616594094405  3.2351215000000000  8.1040959377211124   F   F   F
  3.1994427914528409  3.2351215000000000  8.1035398274090120   F   F   F
 12.7872935890343573  0.0000000000000000 11.4515128309250453   F   F   F
  3.2170433921709676  0.0000000000000000 11.4524405769393702   F   F   F
  0.0000000000000000  3.2351215000000000  3.6132425009199376   F   F   F
  3.2021329999999999  3.2351215000000000  3.6132425009199376   F   F   F
  0.0000000000000000  0.0000000000000000  0.3781210009199379   F   F   F
  3.2021329999999999  0.0000000000000000  0.3781210009199379   F   F   F
  1.6010664999999999  5.2308032509199833  4.8526822500000000   F   F   F
  4.8031994999999998  5.2308032509199833  4.8526822500000000   F   F   F
  1.6010664999999999  1.9956817509199831  1.6175607500000000   F   F   F
  4.8031994999999998  1.9956817509199831  1.6175607500000000   F   F   F
  0.0000000000000000  3.2351215000000000  6.0921219990800619   F   F   F
  3.2021329999999999  3.2351215000000000  6.0921219990800619   F   F   F
  0.0000000000000000  0.0000000000000000  2.8570004990800624   F   F   F
  3.2021329999999999  0.0000000000000000  2.8570004990800624   F   F   F
  1.6010664999999999  1.2394397490800166  4.8526822500000000   F   F   F
  4.8031994999999998  1.2394397490800166  4.8526822500000000   F   F   F
  1.6010664999999999  4.4745612490800166  1.6175607500000000   F   F   F
  4.8031994999999998  4.4745612490800166  1.6175607500000000   F   F   F
 12.8034861152160619  3.2351215000000000 10.0928287817849984   F   F   F
  3.2076092814045820  3.2351215000000000 10.0903954706824575   F   F   F
  0.0085074374704212  0.0000000000000000  6.8542016955702803   F   F   F
  3.1919353956793191  0.0000000000000000  6.8537599064382944   F   F   F
  1.5975055870633339  5.2372729646449168 11.2912887003867350   F   F   F
  4.8413329724532037  5.2353860704573361 11.4012602022296736   F   F   F
  1.5987552497606181  1.9903354160432765  8.1010033237673458   F   F   F
  4.7982683300592477  1.9907795188327442  8.0831872649612908   F   F   F
  0.0025396976281761  3.2351215000000000 12.5271890342250174   F   F   F
  3.1991716772876653  3.2351215000000000 12.5295558280435948   F   F   F
 12.7981950908748079  0.0000000000000000  9.3577852145980795   F   F   F
  3.2096918112221244  0.0000000000000000  9.3589926650690849   F   F   F
  1.5975055870633339  1.2329700353550852 11.2912887003867350   F   F   F
  4.8413329724532037  1.2348569295426646 11.4012602022296736   F   F   F
  1.5987552497606181  4.4799075839567042  8.1010033237673458   F   F   F
  4.7982683300592477  4.4794634811672092  8.0831872649612908   F   F   F
  3.1634186337611321  0.0000000000000000 13.2477070807716100   F   F   F
  0.0425615494592948  0.0000000000000000 13.2455235362730264   F   F   F
  8.0053324999999997  3.2351215000000000  4.8526822500000000   F   F   F
 11.2074654999999996  3.2351215000000000  4.8526822500000000   F   F   F
  8.0053324999999997  0.0000000000000000  1.6175607500000000   F   F   F
 11.2074654999999996  0.0000000000000000  1.6175607500000000   F   F   F
  6.4042659999999998  3.2351215000000000  1.6175607500000000   F   F   F
  9.6063989999999997  3.2351215000000000  1.6175607500000000   F   F   F
  6.4042659999999998  0.0000000000000000  4.8526822500000000   F   F   F
  9.6063989999999997  0.0000000000000000  4.8526822500000000   F   F   F
  8.0032854945053042  3.2351215000000000 11.2848942328417028   F   F   F
 11.2011012827120098  3.2351215000000000 11.3599484879963821   F   F   F
  8.0027718582928653  0.0000000000000000  8.1046193647466342   F   F   F
 11.2167508604465347  0.0000000000000000  8.0896064719445526   F   F   F
  6.3982923872951494  3.2351215000000000  8.0907033829820598   F   F   F
  9.6100403570737818  3.2351215000000000  8.0911294135474918   F   F   F
  6.4747303596060402  0.0000000000000000 11.3894968106046921   F   F   F
  9.5299476968571000  0.0000000000000000 11.3849928979728876   F   F   F
  6.4042659999999998  3.2351215000000000  3.6132425009199376   F   F   F
  9.6063989999999997  3.2351215000000000  3.6132425009199376   F   F   F
  6.4042659999999998  0.0000000000000000  0.3781210009199379   F   F   F
  9.6063989999999997  0.0000000000000000  0.3781210009199379   F   F   F
  8.0053324999999997  5.2308032509199833  4.8526822500000000   F   F   F
 11.2074654999999996  5.2308032509199833  4.8526822500000000   F   F   F
  8.0053324999999997  1.9956817509199831  1.6175607500000000   F   F   F
 11.2074654999999996  1.9956817509199831  1.6175607500000000   F   F   F
  6.4042659999999998  3.2351215000000000  6.0921219990800619   F   F   F
  9.6063989999999997  3.2351215000000000  6.0921219990800619   F   F   F
  6.4042659999999998  0.0000000000000000  2.8570004990800624   F   F   F
  9.6063989999999997  0.0000000000000000  2.8570004990800624   F   F   F
  8.0053324999999997  1.2394397490800166  4.8526822500000000   F   F   F
 11.2074654999999996  1.2394397490800166  4.8526822500000000   F   F   F
  8.0053324999999997  4.4745612490800166  1.6175607500000000   F   F   F
 11.2074654999999996  4.4745612490800166  1.6175607500000000   F   F   F
  6.3821546968387164  3.2351215000000000 10.0655054639047918   F   F   F
  9.6266258922756531  3.2351215000000000 10.0670410813495472   F   F   F
  6.4046221933448395  0.0000000000000000  6.8573342382599263   F   F   F
  9.6033895514443923  0.0000000000000000  6.8543698163342324   F   F   F
  8.0019066489693955  5.2080023847330885 11.0879541849719647   F   F   F
 11.1645676075904650  5.2359545373658980 11.4020296929276217   F   F   F
  8.0017913608700617  1.9932100720933481  8.0825704436776675   F   F   F
 11.2140494253361460  1.9918155567115834  8.0830702787868223   F   F   F
  6.4359220292337200  3.2351215000000000 12.5001095434013809   F   F   F
  9.5684807724625944  3.2351215000000000 12.5026433444675682   F   F   F
  6.3537303900592352  0.0000000000000000  9.3308346789562755   F   F   F
  9.6493007101825850  0.0000000000000000  9.3275080337227934   F   F   F
  8.0019066489693955  1.2622406152669126 11.0879541849719647   F   F   F
 11.1645676075904650  1.2342884626341004 11.4020296929276217   F   F   F
  8.0017913608700617  4.4770329279066505  8.0825704436776675   F   F   F
 11.2140494253361460  4.4784274432883748  8.0830702787868223   F   F   F
  8.8565145305242705  0.0000000000000000 13.1588269810114298   T   T   T
  7.1556266074125299  0.0000000000000000 13.1630140096867638   T   T   T
