Ir  O Ir  O 
 1.0000000000000000
    12.8085319999999996    0.0000000000000000    0.0000000000000000
     0.0000000000000000    6.4702430000000000    0.0000000000000000
     0.0000000000000000    0.0000000000000000   25.8809719999999999
Ir  O Ir  O
  15  32  16  33
Selective dynamics
Cartesian
  1.6010664999999999  3.2351215000000000  4.8526822500000000   F   F   F
  4.8031994999999998  3.2351215000000000  4.8526822500000000   F   F   F
  1.6010664999999999  0.0000000000000000  1.6175607500000000   F   F   F
  4.8031994999999998  0.0000000000000000  1.6175607500000000   F   F   F
  0.0000000000000000  3.2351215000000000  1.6175607500000000   F   F   F
  3.2021329999999999  3.2351215000000000  1.6175607500000000   F   F   F
  0.0000000000000000  0.0000000000000000  4.8526822500000000   F   F   F
  3.2021329999999999  0.0000000000000000  4.8526822500000000   F   F   F
  1.6187640999315460  3.2351215000000000 11.3968518724222463   F   F   F
  4.8027969531590884  3.2351215000000000 11.3759870433271111   F   F   F
  1.5595030901057314  0.0000000000000000  8.0795834243472218   F   F   F
  4.8043335606317878  0.0000000000000000  8.0711486616250223   F   F   F
 12.8073309380177136  3.2351215000000000  8.1143861157623771   F   F   F
  3.1996371640738794  3.2351215000000000  8.1066080377446976   F   F   F
  3.1071693442049542  0.0000000000000000 11.2595827737188472   F   F   F
  0.0000000000000000  3.2351215000000000  3.6132425009199376   F   F   F
  3.2021329999999999  3.2351215000000000  3.6132425009199376   F   F   F
  0.0000000000000000  0.0000000000000000  0.3781210009199379   F   F   F
  3.2021329999999999  0.0000000000000000  0.3781210009199379   F   F   F
  1.6010664999999999  5.2308032509199833  4.8526822500000000   F   F   F
  4.8031994999999998  5.2308032509199833  4.8526822500000000   F   F   F
  1.6010664999999999  1.9956817509199831  1.6175607500000000   F   F   F
  4.8031994999999998  1.9956817509199831  1.6175607500000000   F   F   F
  0.0000000000000000  3.2351215000000000  6.0921219990800619   F   F   F
  3.2021329999999999  3.2351215000000000  6.0921219990800619   F   F   F
  0.0000000000000000  0.0000000000000000  2.8570004990800624   F   F   F
  3.2021329999999999  0.0000000000000000  2.8570004990800624   F   F   F
  1.6010664999999999  1.2394397490800166  4.8526822500000000   F   F   F
  4.8031994999999998  1.2394397490800166  4.8526822500000000   F   F   F
  1.6010664999999999  4.4745612490800166  1.6175607500000000   F   F   F
  4.8031994999999998  4.4745612490800166  1.6175607500000000   F   F   F
  0.0023791248402541  3.2351215000000000 10.1131689739456085   F   F   F
  3.2137819179992615  3.2351215000000000 10.1042512430880418   F   F   F
 12.8045019768575230  0.0000000000000000  6.8305956099998637   F   F   F
  3.2079096916236973  0.0000000000000000  6.8418525582741143   F   F   F
  1.7544311138915452  5.1406208085737797 11.4654887146694975   F   F   F
  4.7782855984341044  5.2443773436703323 11.3919846363765576   F   F   F
  1.5930763745608518  1.9935416474535419  8.0925799859671059   F   F   F
  4.8047588115259545  1.9950365991617995  8.0985594686552584   F   F   F
 12.7839749836544527  3.2351215000000000 12.5608212163045341   F   F   F
  3.2514883621885291  3.2351215000000000 12.5990223476366374   F   F   F
  0.0067591717589498  0.0000000000000000  9.2657241002760724   F   F   F
  3.1940047894356507  0.0000000000000000  9.2970618890811974   F   F   F
  1.7544311138915452  1.3296221914262207 11.4654887146694975   F   F   F
  4.7782855984341044  1.2258656563296222 11.3919846363765576   F   F   F
  1.5930763745608518  4.4767013525464590  8.0925799859671059   F   F   F
  4.8047588115259545  4.4752064008382018  8.0985594686552584   F   F   F
  8.0053324999999997  3.2351215000000000  4.8526822500000000   F   F   F
 11.2074654999999996  3.2351215000000000  4.8526822500000000   F   F   F
  8.0053324999999997  0.0000000000000000  1.6175607500000000   F   F   F
 11.2074654999999996  0.0000000000000000  1.6175607500000000   F   F   F
  6.4042659999999998  3.2351215000000000  1.6175607500000000   F   F   F
  9.6063989999999997  3.2351215000000000  1.6175607500000000   F   F   F
  6.4042659999999998  0.0000000000000000  4.8526822500000000   F   F   F
  9.6063989999999997  0.0000000000000000  4.8526822500000000   F   F   F
  7.9945967383358187  3.2351215000000000 11.3564174314828339   F   F   F
 11.1898795237881465  3.2351215000000000 11.3778844535828352   F   F   F
  8.0343320286717628  0.0000000000000000  8.0941717289863657   F   F   F
 11.2327998387494183  0.0000000000000000  8.0943467809164069   F   F   F
  6.4070822224810726  3.2351215000000000  8.1081312979800551   F   F   F
  9.6083244582554936  3.2351215000000000  8.1026078172224256   F   F   F
  6.3947335908359921  0.0000000000000000 11.2498502750355005   F   F   F
  9.6792870286853017  0.0000000000000000 11.4709612066271589   F   F   F
  6.4042659999999998  3.2351215000000000  3.6132425009199376   F   F   F
  9.6063989999999997  3.2351215000000000  3.6132425009199376   F   F   F
  6.4042659999999998  0.0000000000000000  0.3781210009199379   F   F   F
  9.6063989999999997  0.0000000000000000  0.3781210009199379   F   F   F
  8.0053324999999997  5.2308032509199833  4.8526822500000000   F   F   F
 11.2074654999999996  5.2308032509199833  4.8526822500000000   F   F   F
  8.0053324999999997  1.9956817509199831  1.6175607500000000   F   F   F
 11.2074654999999996  1.9956817509199831  1.6175607500000000   F   F   F
  6.4042659999999998  3.2351215000000000  6.0921219990800619   F   F   F
  9.6063989999999997  3.2351215000000000  6.0921219990800619   F   F   F
  6.4042659999999998  0.0000000000000000  2.8570004990800624   F   F   F
  9.6063989999999997  0.0000000000000000  2.8570004990800624   F   F   F
  8.0053324999999997  1.2394397490800166  4.8526822500000000   F   F   F
 11.2074654999999996  1.2394397490800166  4.8526822500000000   F   F   F
  8.0053324999999997  4.4745612490800166  1.6175607500000000   F   F   F
 11.2074654999999996  4.4745612490800166  1.6175607500000000   F   F   F
  6.3978180124632562  3.2351215000000000 10.0964224104682074   F   F   F
  9.5781597104187330  3.2351215000000000 10.0879388547846975   F   F   F
  6.4165557305039211  0.0000000000000000  6.8447685763911510   F   F   F
  9.6054451113727328  0.0000000000000000  6.8491216570977587   F   F   F
  7.9977872024385084  5.2330287851208128 11.3638604237511025   F   F   F
 11.0913683977329018  5.1495281369873753 11.3033951364452285   F   F   F
  8.0126270470040595  1.9936195630100986  8.0971013934031468   F   F   F
 11.2116680038152250  1.9900670112613481  8.0913796335160058   F   F   F
  6.4053766939411583  3.2351215000000000 12.5474466136604779   F   F   F
  9.5787835896915183  3.2351215000000000 12.5577455800568849   F   F   F
  6.4058592250506345  0.0000000000000000  9.3055275995865561   F   F   F
  9.6183606692072470  0.0000000000000000  9.3442649569780816   F   F   F
  7.9977872024385084  1.2372142148791858 11.3638604237511025   F   F   F
 11.0913683977329018  1.3207148630126240 11.3033951364452285   F   F   F
  8.0126270470040595  4.4766234369899038  8.0971013934031468   F   F   F
 11.2116680038152250  4.4801759887386527  8.0913796335160058   F   F   F
  9.5739830439086102  0.0000000000000000 13.2599628412585648   T   T   T
