Ir  O Ir  O
 1.0000000000000000
  12.8085319999999996   0.0000000000000000   0.0000000000000000
   0.0000000000000000   6.4702430000000000   0.0000000000000000
   0.0000000000000000   0.0000000000000000  25.8809719999999999
Ir  O Ir  O
16  34  16  34  
Selective dynamics
Direct
  0.1250000000000000  0.5000000000000000  0.1875000000000000 F F F
  0.3750000000000000  0.5000000000000000  0.1875000000000000 F F F
  0.1250000000000000  0.0000000000000000  0.0625000000000000 F F F
  0.3750000000000000  0.0000000000000000  0.0625000000000000 F F F
  0.0000000000000000  0.5000000000000000  0.0625000000000000 F F F
  0.2500000000000000  0.5000000000000000  0.0625000000000000 F F F
  0.0000000000000000  0.0000000000000000  0.1875000000000000 F F F
  0.2500000000000000  0.0000000000000000  0.1875000000000000 F F F
  0.1250487552413230  0.5000000000000000  0.4382352472695890 T T T
  0.3751208136225300  0.5000000000000000  0.4388335925269470 T T T
  0.1249137803939600  0.0000000000000000  0.3133364032053760 T T T
  0.3735108968788550  0.0000000000000000  0.3125396042073730 T T T
  0.0002214438561126  0.5000000000000000  0.3130686772945950 T T T
  0.2497620289370990  0.5000000000000000  0.3130865544255600 T T T
  0.9985360335626370  0.0000000000000000  0.4425877266642430 T T T
  0.2512711479620290  0.0000000000000000  0.4426595231276100 T T T
  0.0000000000000000  0.5000000000000000  0.1396099999999980 F F F
  0.2500000000000000  0.5000000000000000  0.1396099999999980 F F F
  0.0000000000000000  0.0000000000000000  0.0146099999999976 F F F
  0.2500000000000000  0.0000000000000000  0.0146099999999976 F F F
  0.1250000000000000  0.8084399999999970  0.1875000000000000 F F F
  0.3750000000000000  0.8084399999999970  0.1875000000000000 F F F
  0.1250000000000000  0.3084399999999970  0.0625000000000000 F F F
  0.3750000000000000  0.3084399999999970  0.0625000000000000 F F F
  0.0000000000000000  0.5000000000000000  0.2353900000000020 F F F
  0.2500000000000000  0.5000000000000000  0.2353900000000020 F F F
  0.0000000000000000  0.0000000000000000  0.1103900000000020 F F F
  0.2500000000000000  0.0000000000000000  0.1103900000000020 F F F
  0.1250000000000000  0.1915600000000030  0.1875000000000000 F F F
  0.3750000000000000  0.1915600000000030  0.1875000000000000 F F F
  0.1250000000000000  0.6915600000000030  0.0625000000000000 F F F
  0.3750000000000000  0.6915600000000030  0.0625000000000000 F F F
  0.9999417941042950  0.5000000000000000  0.3899344997043030 T T T
  0.2502816398840440  0.5000000000000000  0.3899035452586830 T T T
  0.0007955661643990  0.0000000000000000  0.2647302616529570 T T T
  0.2490692178524650  0.0000000000000000  0.2647539594036990 T T T
  0.1248296189369360  0.8094571572129250  0.4364037408093040 T T T
  0.3777935059976870  0.8087233084600310  0.4403664461478410 T T T
  0.1248459224087950  0.3075626214107030  0.3130316817413930 T T T
  0.3744694582702410  0.3078223762285860  0.3123893143290530 T T T
  0.0003085513249488  0.5000000000000000  0.4839527459733760 T T T
  0.2497930488702660  0.5000000000000000  0.4840843783512480 T T T
  0.9993929202863540  0.0000000000000000  0.3614990415638600 T T T
  0.2504066168585340  0.0000000000000000  0.3615958694227220 T T T
  0.1248296189369360  0.1905428427870750  0.4364037408093040 T T T
  0.3777935059976870  0.1912766915399620  0.4403664461478410 T T T
  0.1248459224087950  0.6924373785892970  0.3130316817413930 T T T
  0.3744694582702410  0.6921776237714070  0.3123893143290530 T T T
  0.2471586861556500  0.0000000000000000  0.5119796940588510 T T T
  0.0036344529358203  0.0000000000000000  0.5119039173822910 T T T
  0.6250000000000000  0.5000000000000000  0.1875000000000000 F F F
  0.8750000000000000  0.5000000000000000  0.1875000000000000 F F F
  0.6250000000000000  0.0000000000000000  0.0625000000000000 F F F
  0.8750000000000000  0.0000000000000000  0.0625000000000000 F F F
  0.5000000000000000  0.5000000000000000  0.0625000000000000 F F F
  0.7500000000000000  0.5000000000000000  0.0625000000000000 F F F
  0.5000000000000000  0.0000000000000000  0.1875000000000000 F F F
  0.7500000000000000  0.0000000000000000  0.1875000000000000 F F F
  0.6249263494354840  0.5000000000000000  0.4363823366417920 T T T
  0.8748742769523969  0.5000000000000000  0.4388269058696180 T T T
  0.6248339290746330  0.0000000000000000  0.3127743064271370 T T T
  0.8763487509856920  0.0000000000000000  0.3124770043457590 T T T
  0.4995069192901840  0.5000000000000000  0.3126437425368560 T T T
  0.7503457255256830  0.5000000000000000  0.3126265114450250 T T T
  0.5048081411422700  0.0000000000000000  0.4376665884927890 T T T
  0.7449362510325840  0.0000000000000000  0.4375253880993880 T T T
  0.5000000000000000  0.5000000000000000  0.1396099999999980 F F F
  0.7500000000000000  0.5000000000000000  0.1396099999999980 F F F
  0.5000000000000000  0.0000000000000000  0.0146099999999976 F F F
  0.7500000000000000  0.0000000000000000  0.0146099999999976 F F F
  0.6250000000000000  0.8084399999999970  0.1875000000000000 F F F
  0.8750000000000000  0.8084399999999970  0.1875000000000000 F F F
  0.6250000000000000  0.3084399999999970  0.0625000000000000 F F F
  0.8750000000000000  0.3084399999999970  0.0625000000000000 F F F
  0.5000000000000000  0.5000000000000000  0.2353900000000020 F F F
  0.7500000000000000  0.5000000000000000  0.2353900000000020 F F F
  0.5000000000000000  0.0000000000000000  0.1103900000000020 F F F
  0.7500000000000000  0.0000000000000000  0.1103900000000020 F F F
  0.6250000000000000  0.1915600000000030  0.1875000000000000 F F F
  0.8750000000000000  0.1915600000000030  0.1875000000000000 F F F
  0.6250000000000000  0.6915600000000030  0.0625000000000000 F F F
  0.8750000000000000  0.6915600000000030  0.0625000000000000 F F F
  0.4983885430147480  0.5000000000000000  0.3891047592470900 T T T
  0.7515755171493690  0.5000000000000000  0.3891064010930880 T T T
  0.4999098251553990  0.0000000000000000  0.2648361439641960 T T T
  0.7499042334529090  0.0000000000000000  0.2647359285253400 T T T
  0.6247431668879460  0.8047990182591530  0.4310947860495200 T T T
  0.8721657235857170  0.8090187321998460  0.4404295643567120 T T T
  0.6247519593767380  0.3082680308109500  0.3124200276284340 T T T
  0.8756578727363400  0.3078524762293500  0.3122707550774710 T T T
  0.5021359938477870  0.5000000000000000  0.4832633623623290 T T T
  0.7475903592322130  0.5000000000000000  0.4832724419357890 T T T
  0.4964157436765010  0.0000000000000000  0.3600790380795970 T T T
  0.7531067397158320  0.0000000000000000  0.3599968291422330 T T T
  0.6247431668879460  0.1952009817408470  0.4310947860495200 T T T
  0.8721657235857170  0.1909812678001540  0.4404295643567120 T T T
  0.6247519593767380  0.6917319691890430  0.3124200276284340 T T T
  0.8756578727363400  0.6921475237706500  0.3122707550774710 T T T
  0.6784209871228130  0.0000000000000000  0.5486738160730770 T T T
  0.5718422857449990  0.0000000000000000  0.5487364379622830 T T T
