Ir  O Ir  O 
 1.0000000000000000
    12.8085319999999996    0.0000000000000000    0.0000000000000000
     0.0000000000000000    6.4702430000000000    0.0000000000000000
     0.0000000000000000    0.0000000000000000   25.8809719999999999
Ir  O Ir  O
  16  32  14  32
Selective dynamics
Cartesian
  1.6010664999999999  3.2351215000000000  4.8526822500000000   F   F   F
  4.8031994999999998  3.2351215000000000  4.8526822500000000   F   F   F
  1.6010664999999999  0.0000000000000000  1.6175607500000000   F   F   F
  4.8031994999999998  0.0000000000000000  1.6175607500000000   F   F   F
  0.0000000000000000  3.2351215000000000  1.6175607500000000   F   F   F
  3.2021329999999999  3.2351215000000000  1.6175607500000000   F   F   F
  0.0000000000000000  0.0000000000000000  4.8526822500000000   F   F   F
  3.2021329999999999  0.0000000000000000  4.8526822500000000   F   F   F
  1.5666762042983164  3.2351215000000000 11.3814273562553101   F   F   F
  4.8390304887298168  3.2351215000000000 11.3937584389185265   F   F   F
  1.5886500934254231  0.0000000000000000  8.0789301462190046   F   F   F
  4.8104559075419857  0.0000000000000000  8.0735435709434746   F   F   F
  0.0232933302905367  3.2351215000000000  8.1250815374622007   F   F   F
  3.1992482903640513  3.2351215000000000  8.0750087020844870   F   F   F
 -0.1529945338332595  0.0000000000000000 11.2550500949358003   F   F   F
  3.2050149910040320  0.0000000000000000 11.2400080058835243   F   F   F
  0.0000000000000000  3.2351215000000000  3.6132425009199376   F   F   F
  3.2021329999999999  3.2351215000000000  3.6132425009199376   F   F   F
  0.0000000000000000  0.0000000000000000  0.3781210009199379   F   F   F
  3.2021329999999999  0.0000000000000000  0.3781210009199379   F   F   F
  1.6010664999999999  5.2308032509199833  4.8526822500000000   F   F   F
  4.8031994999999998  5.2308032509199833  4.8526822500000000   F   F   F
  1.6010664999999999  1.9956817509199831  1.6175607500000000   F   F   F
  4.8031994999999998  1.9956817509199831  1.6175607500000000   F   F   F
  0.0000000000000000  3.2351215000000000  6.0921219990800619   F   F   F
  3.2021329999999999  3.2351215000000000  6.0921219990800619   F   F   F
  0.0000000000000000  0.0000000000000000  2.8570004990800624   F   F   F
  3.2021329999999999  0.0000000000000000  2.8570004990800624   F   F   F
  1.6010664999999999  1.2394397490800166  4.8526822500000000   F   F   F
  4.8031994999999998  1.2394397490800166  4.8526822500000000   F   F   F
  1.6010664999999999  4.4745612490800166  1.6175607500000000   F   F   F
  4.8031994999999998  4.4745612490800166  1.6175607500000000   F   F   F
  0.1462979577574699  3.2351215000000000 10.0395612257475886   F   F   F
  3.2040223471501119  3.2351215000000000 10.0419912077147107   F   F   F
 12.7965926238591354  0.0000000000000000  6.8491253470758844   F   F   F
  3.1987722477096332  0.0000000000000000  6.8426340257736245   F   F   F
  1.5785315037587693  5.2598475894577481 11.3656029701629748   F   F   F
  4.8293152140446782  5.2597504477666908 11.3729299946280147   F   F   F
  1.6066906334639468  1.9946860295019455  8.0587276391577145   F   F   F
  4.7888972605027549  1.9942802412110214  8.0379861572814981   F   F   F
  0.4558465593583511  3.2351215000000000 12.8004462986864489   F   F   F
  3.2001633112463042  3.2351215000000000 12.4500863306641012   F   F   F
 -0.0239570118530845  0.0000000000000000  9.3179193879208935   F   F   F
  3.2015179485439251  0.0000000000000000  9.3032244698702513   F   F   F
  1.5785315037587693  1.2103954105422503 11.3656029701629748   F   F   F
  4.8293152140446782  1.2104925522332610 11.3729299946280147   F   F   F
  1.6066906334639468  4.4755569704980571  8.0587276391577145   F   F   F
  4.7888972605027549  4.4759627587889783  8.0379861572814981   F   F   F
  8.0053324999999997  3.2351215000000000  4.8526822500000000   F   F   F
 11.2074654999999996  3.2351215000000000  4.8526822500000000   F   F   F
  8.0053324999999997  0.0000000000000000  1.6175607500000000   F   F   F
 11.2074654999999996  0.0000000000000000  1.6175607500000000   F   F   F
  6.4042659999999998  3.2351215000000000  1.6175607500000000   F   F   F
  9.6063989999999997  3.2351215000000000  1.6175607500000000   F   F   F
  6.4042659999999998  0.0000000000000000  4.8526822500000000   F   F   F
  9.6063989999999997  0.0000000000000000  4.8526822500000000   F   F   F
  8.0358251798014368  0.0000000000000000  8.0972745658462433   F   F   F
 11.1731699646131961  0.0000000000000000  8.0996353690657035   F   F   F
  6.3734127871150825  3.2351215000000000  8.1170755775299916   F   F   F
  9.6023630358255847  3.2351215000000000  8.1961331578513565   F   F   F
  6.5605044503765573  0.0000000000000000 11.2526503468922350   F   F   F
  9.6072050703884031  0.0000000000000000 11.8791883699167649   F   F   F
  6.4042659999999998  3.2351215000000000  3.6132425009199376   F   F   F
  9.6063989999999997  3.2351215000000000  3.6132425009199376   F   F   F
  6.4042659999999998  0.0000000000000000  0.3781210009199379   F   F   F
  9.6063989999999997  0.0000000000000000  0.3781210009199379   F   F   F
  8.0053324999999997  5.2308032509199833  4.8526822500000000   F   F   F
 11.2074654999999996  5.2308032509199833  4.8526822500000000   F   F   F
  8.0053324999999997  1.9956817509199831  1.6175607500000000   F   F   F
 11.2074654999999996  1.9956817509199831  1.6175607500000000   F   F   F
  6.4042659999999998  3.2351215000000000  6.0921219990800619   F   F   F
  9.6063989999999997  3.2351215000000000  6.0921219990800619   F   F   F
  6.4042659999999998  0.0000000000000000  2.8570004990800624   F   F   F
  9.6063989999999997  0.0000000000000000  2.8570004990800624   F   F   F
  8.0053324999999997  1.2394397490800166  4.8526822500000000   F   F   F
 11.2074654999999996  1.2394397490800166  4.8526822500000000   F   F   F
  8.0053324999999997  4.4745612490800166  1.6175607500000000   F   F   F
 11.2074654999999996  4.4745612490800166  1.6175607500000000   F   F   F
  6.2241487965206304  3.2351215000000000 10.0338786726793359   F   F   F
  9.5922858280578822  3.2351215000000000  9.9839972954567813   F   F   F
  6.4154296297172966  0.0000000000000000  6.8473688104521955   F   F   F
  9.6063474574174794  0.0000000000000000  6.8427629585287262   F   F   F
  8.0881229523519043  5.2819842477609544 11.4713172500607143   F   F   F
 11.1256685042508074  5.2824874226922756 11.4738838109718362   F   F   F
  7.9997911766850436  2.0007002478094447  8.0821348653710743   F   F   F
 11.2066025176180748  2.0007820628614112  8.0912714812022521   F   F   F
  5.9197869010391448  3.2351215000000000 12.8303249255097391   F   F   F
  6.4229647284517801  0.0000000000000000  9.3140250710091603   F   F   F
  9.6043368010437327  0.0000000000000000  9.3262088464682211   F   F   F
  8.0881229523519043  1.1882587522390460 11.4713172500607143   F   F   F
 11.1256685042508074  1.1877555773077255 11.4738838109718362   F   F   F
  7.9997911766850436  4.4695427521905540  8.0821348653710743   F   F   F
 11.2066025176180748  4.4694609371385887  8.0912714812022521   F   F   F
  9.6053461710815906  0.0000000000000000 13.6261279401523261   T   T   T
