Ir  O Ir  O 
 1.0000000000000000
    12.8085319999999996    0.0000000000000000    0.0000000000000000
     0.0000000000000000    6.4702430000000000    0.0000000000000000
     0.0000000000000000    0.0000000000000000   25.8809719999999999
  16  32  16  34
Selective dynamics
Cartesian
  1.6010664999999999  3.2351215000000000  4.8526822500000000   F   F   F
  4.8031994999999998  3.2351215000000000  4.8526822500000000   F   F   F
  1.6010664999999999  0.0000000000000000  1.6175607500000000   F   F   F
  4.8031994999999998  0.0000000000000000  1.6175607500000000   F   F   F
  0.0000000000000000  3.2351215000000000  1.6175607500000000   F   F   F
  3.2021329999999999  3.2351215000000000  1.6175607500000000   F   F   F
  0.0000000000000000  0.0000000000000000  4.8526822500000000   F   F   F
  3.2021329999999999  0.0000000000000000  4.8526822500000000   F   F   F
  1.6030334557530042  3.2351215000000000 11.3677135528352533   T   T   T
  4.8078404728285733  3.2351215000000000 11.3455059682186388   T   T   T
  1.6005262626297563  0.0000000000000000  8.0689824197088953   T   T   T
  4.8238345757658267  0.0000000000000000  8.0892196378039127   T   T   T
 -0.0023443657304621  3.2351215000000000  8.1031873406986321   T   T   T
  3.2023157776849640  3.2351215000000000  8.1027843409720255   T   T   T
  0.0057695077288936  0.0000000000000000 11.2455610489481668   T   T   T
  3.2057559552573136  0.0000000000000000 11.2469776770462495   T   T   T
  0.0000000000000000  3.2351215000000000  3.6132425009199376   F   F   F
  3.2021329999999999  3.2351215000000000  3.6132425009199376   F   F   F
  0.0000000000000000  0.0000000000000000  0.3781210009199379   F   F   F
  3.2021329999999999  0.0000000000000000  0.3781210009199379   F   F   F
  1.6010664999999999  5.2308032509199833  4.8526822500000000   F   F   F
  4.8031994999999998  5.2308032509199833  4.8526822500000000   F   F   F
  1.6010664999999999  1.9956817509199831  1.6175607500000000   F   F   F
  4.8031994999999998  1.9956817509199831  1.6175607500000000   F   F   F
  0.0000000000000000  3.2351215000000000  6.0921219990800619   F   F   F
  3.2021329999999999  3.2351215000000000  6.0921219990800619   F   F   F
  0.0000000000000000  0.0000000000000000  2.8570004990800624   F   F   F
  3.2021329999999999  0.0000000000000000  2.8570004990800624   F   F   F
  1.6010664999999999  1.2394397490800166  4.8526822500000000   F   F   F
  4.8031994999999998  1.2394397490800166  4.8526822500000000   F   F   F
  1.6010664999999999  4.4745612490800166  1.6175607500000000   F   F   F
  4.8031994999999998  4.4745612490800166  1.6175607500000000   F   F   F
  0.0015225459844731  3.2351215000000000 10.0951212966058925   T   T   T
  3.2002675254564905  3.2351215000000000 10.0949928497021588   T   T   T
 -0.0055803265212190  0.0000000000000000  6.8394645999177817   T   T   T
  3.2075264515462183  0.0000000000000000  6.8412915862934245   T   T   T
  1.6050500749925800  5.2405889047257155 11.3939048706043948   T   T   T
  4.7973648445663555  5.2307139060382184 11.3478293504150063   T   T   T
  1.5979515188571576  1.9953374883798727  8.0921835391663706   T   T   T
  4.8086620607803914  1.9936930774186539  8.0939708014770488   T   T   T
 -0.0044352622593194  3.2351215000000000 12.5495871670306549   T   T   T
  3.2143611132418317  3.2351215000000000 12.5477926694674125   T   T   T
 -0.0017148090233240  0.0000000000000000  9.2952419291000741   T   T   T
  3.2038648509707111  0.0000000000000000  9.2990454453964038   T   T   T
  1.6050500749925800  1.2296540952742845 11.3939048706043948   T   T   T
  4.7973648445663555  1.2395290939617811 11.3478293504150063   T   T   T
  1.5979515188571576  4.4749055116201273  8.0921835391663706   T   T   T
  4.8086620607803914  4.4765499225813459  8.0939708014770488   T   T   T
  8.0053324999999997  3.2351215000000000  4.8526822500000000   F   F   F
 11.2074654999999996  3.2351215000000000  4.8526822500000000   F   F   F
  8.0053324999999997  0.0000000000000000  1.6175607500000000   F   F   F
 11.2074654999999996  0.0000000000000000  1.6175607500000000   F   F   F
  6.4042659999999998  3.2351215000000000  1.6175607500000000   F   F   F
  9.6063989999999997  3.2351215000000000  1.6175607500000000   F   F   F
  6.4042659999999998  0.0000000000000000  4.8526822500000000   F   F   F
  9.6063989999999997  0.0000000000000000  4.8526822500000000   F   F   F
  8.0057507301669801  3.2351215000000000 11.3301383973786916   T   T   T
 11.2068196036754379  3.2351215000000000 11.3489467419448911   T   T   T
  8.0046610890859871  0.0000000000000000  8.1003720559658472   T   T   T
 11.1865861019983406  0.0000000000000000  8.0878088877133401   T   T   T
  6.4057145523962005  3.2351215000000000  8.0950743336081654   T   T   T
  9.6049070439455164  3.2351215000000000  8.0966117961767203   T   T   T
  6.4071885576560197  0.0000000000000000 11.4409621086265858   T   T   T
  9.6087006070233620  0.0000000000000000 11.4419251000147835   T   T   T
  6.4042659999999998  3.2351215000000000  3.6132425009199376   F   F   F
  9.6063989999999997  3.2351215000000000  3.6132425009199376   F   F   F
  6.4042659999999998  0.0000000000000000  0.3781210009199379   F   F   F
  9.6063989999999997  0.0000000000000000  0.3781210009199379   F   F   F
  8.0053324999999997  5.2308032509199833  4.8526822500000000   F   F   F
 11.2074654999999996  5.2308032509199833  4.8526822500000000   F   F   F
  8.0053324999999997  1.9956817509199831  1.6175607500000000   F   F   F
 11.2074654999999996  1.9956817509199831  1.6175607500000000   F   F   F
  6.4042659999999998  3.2351215000000000  6.0921219990800619   F   F   F
  9.6063989999999997  3.2351215000000000  6.0921219990800619   F   F   F
  6.4042659999999998  0.0000000000000000  2.8570004990800624   F   F   F
  9.6063989999999997  0.0000000000000000  2.8570004990800624   F   F   F
  8.0053324999999997  1.2394397490800166  4.8526822500000000   F   F   F
 11.2074654999999996  1.2394397490800166  4.8526822500000000   F   F   F
  8.0053324999999997  4.4745612490800166  1.6175607500000000   F   F   F
 11.2074654999999996  4.4745612490800166  1.6175607500000000   F   F   F
  6.4041484149938350  3.2351215000000000 10.0799235442815132   T   T   T
  9.6077553822349273  3.2351215000000000 10.0819660653408736   T   T   T
  6.4068502940831857  0.0000000000000000  6.8492632005525023   T   T   T
  9.6022276811211018  0.0000000000000000  6.8485760103589151   T   T   T
  8.0048310384204804  5.2344565035076256 11.2884847901689156   T   T   T
 11.2231661556957114  5.2308527999496928 11.3514106944843700   T   T   T
  8.0033882057382275  1.9899474399818013  8.0882030757080479   T   T   T
 11.2040504044420288  1.9933982186887382  8.0928173079973114   T   T   T
  6.4141381115475786  3.2351215000000000 12.5165137375369788   T   T   T
  9.5973268562293992  3.2351215000000000 12.5166399118818603   T   T   T
  6.4005282988815164  0.0000000000000000  9.3442375551290695   T   T   T
  9.6098134090882770  0.0000000000000000  9.3460128493639925   T   T   T
  8.0048310384204804  1.2357864964923737 11.2884847901689156   T   T   T
 11.2231661556957114  1.2393902000503059 11.3514106944843700   T   T   T
  8.0033882057382275  4.4802955600182006  8.0882030757080479   T   T   T
 11.2040504044420288  4.4768447813112626  8.0928173079973114   T   T   T
  9.5881038149690241  0.0000000000000000 13.2400316726399137   T   T   T
  6.4253657432491327  0.0000000000000000 13.2376645054779516   T   T   T
