Ir  O Ir  O 
 1.0000000000000000
    12.8085319999999996    0.0000000000000000    0.0000000000000000
     0.0000000000000000    6.4702430000000000    0.0000000000000000
     0.0000000000000000    0.0000000000000000   25.8809719999999999
  16  34  16  34
Selective dynamics
Cartesian
  1.6010664999999999  3.2351215000000000  4.8526822500000000   F   F   F
  4.8031994999999998  3.2351215000000000  4.8526822500000000   F   F   F
  1.6010664999999999  0.0000000000000000  1.6175607500000000   F   F   F
  4.8031994999999998  0.0000000000000000  1.6175607500000000   F   F   F
  0.0000000000000000  3.2351215000000000  1.6175607500000000   F   F   F
  3.2021329999999999  3.2351215000000000  1.6175607500000000   F   F   F
  0.0000000000000000  0.0000000000000000  4.8526822500000000   F   F   F
  3.2021329999999999  0.0000000000000000  4.8526822500000000   F   F   F
  1.5977648983399848  3.2547995914746588 11.3327479161854132   T   T   T
  4.7984383943978708  3.2528165728080363 11.3504315247899790   T   T   T
  1.5985952941176684  0.0019501017515332  8.1056041899342954   T   T   T
  4.7836220492018251  0.0040552944301731  8.0888025351250388   T   T   T
  0.0011786252944070  3.2374849725712460  8.0979374393354728   T   T   T
  3.2002484789670218  3.2390454718354609  8.0985281287536512   T   T   T
 -0.0090404613330030  0.0209815049240237 11.4479932651293446   T   T   T
  3.2018232870309662  0.0185483146349365 11.4460922702939847   T   T   T
  0.0000000000000000  3.2351215000000000  3.6132425009199376   F   F   F
  3.2021329999999999  3.2351215000000000  3.6132425009199376   F   F   F
  0.0000000000000000  0.0000000000000000  0.3781210009199379   F   F   F
  3.2021329999999999  0.0000000000000000  0.3781210009199379   F   F   F
  1.6010664999999999  5.2308032509199833  4.8526822500000000   F   F   F
  4.8031994999999998  5.2308032509199833  4.8526822500000000   F   F   F
  1.6010664999999999  1.9956817509199831  1.6175607500000000   F   F   F
  4.8031994999999998  1.9956817509199831  1.6175607500000000   F   F   F
  0.0000000000000000  3.2351215000000000  6.0921219990800619   F   F   F
  3.2021329999999999  3.2351215000000000  6.0921219990800619   F   F   F
  0.0000000000000000  0.0000000000000000  2.8570004990800624   F   F   F
  3.2021329999999999  0.0000000000000000  2.8570004990800624   F   F   F
  1.6010664999999999  1.2394397490800166  4.8526822500000000   F   F   F
  4.8031994999999998  1.2394397490800166  4.8526822500000000   F   F   F
  1.6010664999999999  4.4745612490800166  1.6175607500000000   F   F   F
  4.8031994999999998  4.4745612490800166  1.6175607500000000   F   F   F
 -0.0008687209811016  3.2523343200240991 10.0813120592993091   T   T   T
  3.2029995672076512  3.2491858904157982 10.0829439021466385   T   T   T
  0.0040778737880883  0.0011213462228502  6.8552348146446178   T   T   T
  3.1948298619934237  0.0033845687336756  6.8513421340712366   T   T   T
  1.5950968253904654  5.2541406375213668 11.3054761653245350   T   T   T
  4.8187347319749438  5.2499039772160989 11.3712701209253204   T   T   T
  1.5977646056820951  1.9928720482167559  8.0979122343294705   T   T   T
  4.7994600663884874  1.9973782235686464  8.0938205201628541   T   T   T
  0.0036960986171895  3.2540556344762210 12.5158179189298888   T   T   T
  3.1900164676807972  3.2517285771151689 12.5178770161300736   T   T   T
 -0.0069879509758494 -0.0031990637202914  9.3494825979938554   T   T   T
  3.2063219867162300 -0.0000020879026463  9.3545655843924163   T   T   T
  1.5960785817943821  1.2552510131606134 11.2772647556582193   T   T   T
  4.8171287425490590  1.2567583338372226 11.3590579591395517   T   T   T
  1.5988846780099839  4.4826699728587398  8.0914675967337608   T   T   T
  4.7997794112821346  4.4812934245689018  8.0854483754665409   T   T   T
  3.1721473116718424  0.0336125710129695 13.2439989400919380   T   T   T
  0.0296541117331319  0.0509589206657090 13.2433901271853038   T   T   T
  8.0053324999999997  3.2351215000000000  4.8526822500000000   F   F   F
 11.2074654999999996  3.2351215000000000  4.8526822500000000   F   F   F
  8.0053324999999997  0.0000000000000000  1.6175607500000000   F   F   F
 11.2074654999999996  0.0000000000000000  1.6175607500000000   F   F   F
  6.4042659999999998  3.2351215000000000  1.6175607500000000   F   F   F
  9.6063989999999997  3.2351215000000000  1.6175607500000000   F   F   F
  6.4042659999999998  0.0000000000000000  4.8526822500000000   F   F   F
  9.6063989999999997  0.0000000000000000  4.8526822500000000   F   F   F
  8.0004662949124885  3.2580544224334047 11.3440706787477268   T   T   T
 11.2070067857166880  3.2587620817427743 11.3508173035529580   T   T   T
  8.0179318067361045  0.0034646590383651  8.0850180074233293   T   T   T
 11.2165296981536429 -0.0001996509954655  8.0924907233053265   T   T   T
  6.4025022295843632  3.2393092810509008  8.0993929335558761   T   T   T
  9.6095810073932668  3.2387178018654468  8.1006650748851978   T   T   T
  6.4119945000981788  0.0214467400638515 11.2606529980174734   T   T   T
  9.5813996473474674  0.0268456329193272 11.3611461384611498   T   T   T
  6.4042659999999998  3.2351215000000000  3.6132425009199376   F   F   F
  9.6063989999999997  3.2351215000000000  3.6132425009199376   F   F   F
  6.4042659999999998  0.0000000000000000  0.3781210009199379   F   F   F
  9.6063989999999997  0.0000000000000000  0.3781210009199379   F   F   F
  8.0053324999999997  5.2308032509199833  4.8526822500000000   F   F   F
 11.2074654999999996  5.2308032509199833  4.8526822500000000   F   F   F
  8.0053324999999997  1.9956817509199831  1.6175607500000000   F   F   F
 11.2074654999999996  1.9956817509199831  1.6175607500000000   F   F   F
  6.4042659999999998  3.2351215000000000  6.0921219990800619   F   F   F
  9.6063989999999997  3.2351215000000000  6.0921219990800619   F   F   F
  6.4042659999999998  0.0000000000000000  2.8570004990800624   F   F   F
  9.6063989999999997  0.0000000000000000  2.8570004990800624   F   F   F
  8.0053324999999997  1.2394397490800166  4.8526822500000000   F   F   F
 11.2074654999999996  1.2394397490800166  4.8526822500000000   F   F   F
  8.0053324999999997  4.4745612490800166  1.6175607500000000   F   F   F
 11.2074654999999996  4.4745612490800166  1.6175607500000000   F   F   F
  6.3959128973785990  3.2460875807035396 10.0867521699770126   T   T   T
  9.6115057641866386  3.2572835998839458 10.0902468063267037   T   T   T
  6.4027162503489601  0.0038375418451692  6.8493783177126408   T   T   T
  9.6091527370090919  0.0040597412424457  6.8467049153083961   T   T   T
  7.9920939614996440  5.2455605369100677 11.3213517203975798   T   T   T
 11.1952830723245729  5.2519200446755292 11.3712243789743948   T   T   T
  8.0064026007421134  1.9981245822835356  8.0986832040589967   T   T   T
 11.2118609979052852  1.9928704750329540  8.0904900692981965   T   T   T
  6.4025220915709191  3.2538460384048191 12.5336191919068263   T   T   T
  9.6005177855945298  3.2334126337981575 12.5316754490945836   T   T   T
  6.3965983096736174 -0.0079420537011422  9.3008075742212490   T   T   T
  9.6194215188057726 -0.0060338639091203  9.3198557613376529   T   T   T
  7.9831984271889294  1.2718895579704252 11.3094695187686725   T   T   T
 11.1976979379722437  1.2632014419640667 11.3329952746623643   T   T   T
  8.0054402949296222  4.4798967673359282  8.0879318643888407   T   T   T
 11.2125340030299867  4.4796740835334425  8.0833830980842158   T   T   T
  9.3433106043882486  0.2670714768841471 13.2808042284798162   T   T   T
  9.4062220717088358 -0.8081214515122080 14.0885708525339552   T   T   T
