Ir  O Ir  O 
 1.0000000000000000
    12.8085319999999996    0.0000000000000000    0.0000000000000000
     0.0000000000000000    6.4702430000000000    0.0000000000000000
     0.0000000000000000    0.0000000000000000   25.8809719999999999
Ir  O Ir  O
  15  32  15  32
Selective dynamics
Cartesian
  1.6010664999999999  3.2351215000000000  4.8526822500000000   F   F   F
  4.8031994999999998  3.2351215000000000  4.8526822500000000   F   F   F
  1.6010664999999999  0.0000000000000000  1.6175607500000000   F   F   F
  4.8031994999999998  0.0000000000000000  1.6175607500000000   F   F   F
  0.0000000000000000  3.2351215000000000  1.6175607500000000   F   F   F
  3.2021329999999999  3.2351215000000000  1.6175607500000000   F   F   F
  0.0000000000000000  0.0000000000000000  4.8526822500000000   F   F   F
  3.2021329999999999  0.0000000000000000  4.8526822500000000   F   F   F
  1.5571912039478033  3.2351215000000000 11.4343321152640094   T   T   T
  1.6015032130943661  0.0000000000000000  8.0749394278058215   T   T   T
  4.8050153976124061  0.0000000000000000  8.0843374506946635   T   T   T
  0.0281598504262127  3.2351215000000000  8.1243890755593746   T   T   T
  3.2079457219753951  3.2351215000000000  8.0824475722476663   T   T   T
 -0.0778575656681496  0.0000000000000000 11.2713089477342994   T   T   T
  3.1898525628049370  0.0000000000000000 11.2669232678990063   T   T   T
  0.0000000000000000  3.2351215000000000  3.6132425009199376   F   F   F
  3.2021329999999999  3.2351215000000000  3.6132425009199376   F   F   F
  0.0000000000000000  0.0000000000000000  0.3781210009199379   F   F   F
  3.2021329999999999  0.0000000000000000  0.3781210009199379   F   F   F
  1.6010664999999999  5.2308032509199833  4.8526822500000000   F   F   F
  4.8031994999999998  5.2308032509199833  4.8526822500000000   F   F   F
  1.6010664999999999  1.9956817509199831  1.6175607500000000   F   F   F
  4.8031994999999998  1.9956817509199831  1.6175607500000000   F   F   F
  0.0000000000000000  3.2351215000000000  6.0921219990800619   F   F   F
  3.2021329999999999  3.2351215000000000  6.0921219990800619   F   F   F
  0.0000000000000000  0.0000000000000000  2.8570004990800624   F   F   F
  3.2021329999999999  0.0000000000000000  2.8570004990800624   F   F   F
  1.6010664999999999  1.2394397490800166  4.8526822500000000   F   F   F
  4.8031994999999998  1.2394397490800166  4.8526822500000000   F   F   F
  1.6010664999999999  4.4745612490800166  1.6175607500000000   F   F   F
  4.8031994999999998  4.4745612490800166  1.6175607500000000   F   F   F
  0.2250780715179819  3.2351215000000000 10.0360610289021519   T   T   T
  3.1845880261120469  3.2351215000000000 10.0597692227410125   T   T   T
 -0.0024678269468666  0.0000000000000000  6.8401950164063603   T   T   T
  3.2071167400472049  0.0000000000000000  6.8410310705543003   T   T   T
  1.5803603516176035  5.2585052669368686 11.4277310916533601   T   T   T
  4.7995465057824127  5.2410308841606570 11.3892613120436454   T   T   T
  1.6161938285234643  1.9934035881580432  8.0335569012556416   T   T   T
  4.8070821694200241  1.9943552032370577  8.0957524147859132   T   T   T
  0.5159221360829667  3.2351215000000000 12.8858744808194388   T   T   T
  3.2324547155675445  3.2351215000000000 12.4638080795416055   T   T   T
 -0.0003950066201985  0.0000000000000000  9.3192085990625202   T   T   T
  3.1982158006388182  0.0000000000000000  9.3098309951768208   T   T   T
  1.5803603516176035  1.2117377330631314 11.4277310916533601   T   T   T
  4.7995465057824127  1.2292121158393428 11.3892613120436454   T   T   T
  1.6161938285234643  4.4768394118419552  8.0335569012556416   T   T   T
  4.8070821694200241  4.4758877967628976  8.0957524147859132   T   T   T
  8.0053324999999997  3.2351215000000000  4.8526822500000000   F   F   F
 11.2074654999999996  3.2351215000000000  4.8526822500000000   F   F   F
  8.0053324999999997  0.0000000000000000  1.6175607500000000   F   F   F
 11.2074654999999996  0.0000000000000000  1.6175607500000000   F   F   F
  6.4042659999999998  3.2351215000000000  1.6175607500000000   F   F   F
  9.6063989999999997  3.2351215000000000  1.6175607500000000   F   F   F
  6.4042659999999998  0.0000000000000000  4.8526822500000000   F   F   F
  9.6063989999999997  0.0000000000000000  4.8526822500000000   F   F   F
  8.0470834367525299  3.2351215000000000 11.4354994485997121   T   T   T
  8.0064803351572760  0.0000000000000000  8.0780270295198182   T   T   T
 11.2088924509171282  0.0000000000000000  8.0803777229553440   T   T   T
  6.4018706371339205  3.2351215000000000  8.0835035089526972   T   T   T
  9.5837644492368348  3.2351215000000000  8.1279432352044303   T   T   T
  6.4101472730767943  0.0000000000000000 11.2684584325755583   T   T   T
  9.6781573763497377  0.0000000000000000 11.2744527537329446   T   T   T
  6.4042659999999998  3.2351215000000000  3.6132425009199376   F   F   F
  9.6063989999999997  3.2351215000000000  3.6132425009199376   F   F   F
  6.4042659999999998  0.0000000000000000  0.3781210009199379   F   F   F
  9.6063989999999997  0.0000000000000000  0.3781210009199379   F   F   F
  8.0053324999999997  5.2308032509199833  4.8526822500000000   F   F   F
 11.2074654999999996  5.2308032509199833  4.8526822500000000   F   F   F
  8.0053324999999997  1.9956817509199831  1.6175607500000000   F   F   F
 11.2074654999999996  1.9956817509199831  1.6175607500000000   F   F   F
  6.4042659999999998  3.2351215000000000  6.0921219990800619   F   F   F
  9.6063989999999997  3.2351215000000000  6.0921219990800619   F   F   F
  6.4042659999999998  0.0000000000000000  2.8570004990800624   F   F   F
  9.6063989999999997  0.0000000000000000  2.8570004990800624   F   F   F
  8.0053324999999997  1.2394397490800166  4.8526822500000000   F   F   F
 11.2074654999999996  1.2394397490800166  4.8526822500000000   F   F   F
  8.0053324999999997  4.4745612490800166  1.6175607500000000   F   F   F
 11.2074654999999996  4.4745612490800166  1.6175607500000000   F   F   F
  6.4221128347776757  3.2351215000000000 10.0629168761463479   T   T   T
  9.3924451462450520  3.2351215000000000 10.0406934661448517   T   T   T
  6.4026671355949549  0.0000000000000000  6.8398985487651141   T   T   T
  9.6090146116588908  0.0000000000000000  6.8432669714686556   T   T   T
  8.0220989236726634  5.2580195704086607 11.4247809893012544   T   T   T
 11.2051373606347902  5.2792504310122839 11.4583533927529508   T   T   T
  7.9931398460469403  1.9933222506415076  8.0400244965811805   T   T   T
 11.2116615775196813  2.0018418084877467  8.1189572891529380   T   T   T
  6.3711282376397307  3.2351215000000000 12.4677302264708239   T   T   T
  9.0861785761638689  3.2351215000000000 12.8898695579287814   T   T   T
  6.4085433023586873  0.0000000000000000  9.3111777685079478   T   T   T
  9.6098134391426573  0.0000000000000000  9.3233432768167255   T   T   T
  8.0220989236726634  1.2122234295913386 11.4247809893012544   T   T   T
 11.2051373606347902  1.1909925689877159 11.4583533927529508   T   T   T
  7.9931398460469403  4.4769207493584897  8.0400244965811805   T   T   T
 11.2116615775196813  4.4684011915122497  8.1189572891529380   T   T   T
