Ir64 O136                               
   1.00000000000000     
    12.8085319999999996    0.0000000000000000    0.0000000000000000
     0.0000000000000000   12.9404859999999999    0.0000000000000000
     0.0000000000000000    0.0000000000000000   25.8809719999999999
   Ir   O 
    64   136
Selective dynamics
Direct
  0.1250000000000000  0.2500000000000000  0.1875000000000000   F   F   F
  0.3750000000000000  0.2500000000000000  0.1875000000000000   F   F   F
  0.1250000000000000  0.0000000000000000  0.0625000000000000   F   F   F
  0.3750000000000000  0.0000000000000000  0.0625000000000000   F   F   F
  0.0000000000000000  0.2500000000000000  0.0625000000000000   F   F   F
  0.2500000000000000  0.2500000000000000  0.0625000000000000   F   F   F
  0.0000000000000000  0.0000000000000000  0.1875000000000000   F   F   F
  0.2500000000000000  0.0000000000000000  0.1875000000000000   F   F   F
  0.1251209392931223  0.2501792289908232  0.4380512892774122   T   T   T
  0.3750901608857706  0.2480451583423107  0.4382946633375061   T   T   T
  0.1248538418382482  0.9994355683796918  0.3126527645553588   T   T   T
  0.3758973655581573  0.9993589663923469  0.3127215108538206   T   T   T
 -0.0001114156153593  0.2495928779992765  0.3130129580842977   T   T   T
  0.2501015077343012  0.2493657164986638  0.3129776704646153   T   T   T
  0.0035440082851897  0.9986983292949843  0.4375366378655149   T   T   T
  0.2461503370988525  0.9985694171147317  0.4377682273018690   T   T   T
  0.6250000000000000  0.2500000000000000  0.1875000000000000   F   F   F
  0.8750000000000000  0.2500000000000000  0.1875000000000000   F   F   F
  0.6250000000000000  0.0000000000000000  0.0625000000000000   F   F   F
  0.8750000000000000  0.0000000000000000  0.0625000000000000   F   F   F
  0.5000000000000000  0.2500000000000000  0.0625000000000000   F   F   F
  0.7500000000000000  0.2500000000000000  0.0625000000000000   F   F   F
  0.5000000000000000  0.0000000000000000  0.1875000000000000   F   F   F
  0.7500000000000000  0.0000000000000000  0.1875000000000000   F   F   F
  0.6249049396194184  0.2484238633008305  0.4380461907306271   T   T   T
  0.8746769320220069  0.2484827541108832  0.4385868732560091   T   T   T
  0.6247625778030487  0.9992667768790582  0.3130515795617150   T   T   T
  0.8738729844324106  0.9993336386673549  0.3126433088235393   T   T   T
  0.5000456021572419  0.2493350538678458  0.3129363935758708   T   T   T
  0.7498788264686460  0.2492366985983270  0.3130218248572054   T   T   T
  0.4988738965449488  0.9985280953560567  0.4423485999677030   T   T   T
  0.7513949097502247  0.9986287861577069  0.4418964134736674   T   T   T
  0.1250000000000000  0.7500000000000000  0.1875000000000000   F   F   F
  0.3750000000000000  0.7500000000000000  0.1875000000000000   F   F   F
  0.1250000000000000  0.5000000000000000  0.0625000000000000   F   F   F
  0.3750000000000000  0.5000000000000000  0.0625000000000000   F   F   F
  0.0000000000000000  0.7500000000000000  0.0625000000000000   F   F   F
  0.2500000000000000  0.7500000000000000  0.0625000000000000   F   F   F
  0.0000000000000000  0.5000000000000000  0.1875000000000000   F   F   F
  0.2500000000000000  0.5000000000000000  0.1875000000000000   F   F   F
  0.1250200867359555  0.7471293387676746  0.4377730834345951   T   T   T
  0.3750430561482515  0.7491101194559729  0.4381939111352023   T   T   T
  0.1264185855107361  0.4993824261864537  0.3126363151639753   T   T   T
  0.3751593418344719  0.4993193959801702  0.3129545273237857   T   T   T
 -0.0001412645402050  0.7491100912520922  0.3128988007737013   T   T   T
  0.2501115723576891  0.7494745341599931  0.3128762208844856   T   T   T
  0.9997929545034517  0.4985807158781999  0.4348686622006764   T   T   T
  0.2502901955880982  0.4987484793134702  0.4421231031458308   T   T   T
  0.6250000000000000  0.7500000000000000  0.1875000000000000   F   F   F
  0.8750000000000000  0.7500000000000000  0.1875000000000000   F   F   F
  0.6250000000000000  0.5000000000000000  0.0625000000000000   F   F   F
  0.8750000000000000  0.5000000000000000  0.0625000000000000   F   F   F
  0.5000000000000000  0.7500000000000000  0.0625000000000000   F   F   F
  0.7500000000000000  0.7500000000000000  0.0625000000000000   F   F   F
  0.5000000000000000  0.5000000000000000  0.1875000000000000   F   F   F
  0.7500000000000000  0.5000000000000000  0.1875000000000000   F   F   F
  0.6249232093329803  0.7486810780010603  0.4379992379178269   T   T   T
  0.8747052520123524  0.7487550883912444  0.4384581930812109   T   T   T
  0.6248383492707275  0.4992727825228021  0.3129674209393441   T   T   T
  0.8735493479462194  0.4993141723423817  0.3125976800264147   T   T   T
  0.5000417877175108  0.7492285373741634  0.3129215877992285   T   T   T
  0.7498428198251624  0.7493831497004682  0.3129727747110767   T   T   T
  0.5000100368037812  0.4985944932552666  0.4413646659249097   T   T   T
  0.7497722851578392  0.4987092264669412  0.4420792349548077   T   T   T
  0.0000000000000000  0.2500000000000000  0.1396099999999976   F   F   F
  0.2500000000000000  0.2500000000000000  0.1396099999999976   F   F   F
  0.0000000000000000  0.0000000000000000  0.0146099999999976   F   F   F
  0.2500000000000000  0.0000000000000000  0.0146099999999976   F   F   F
  0.1250000000000000  0.4042200000000022  0.1875000000000000   F   F   F
  0.3750000000000000  0.4042200000000022  0.1875000000000000   F   F   F
  0.1250000000000000  0.1542200000000022  0.0625000000000000   F   F   F
  0.3750000000000000  0.1542200000000022  0.0625000000000000   F   F   F
  0.0000000000000000  0.2500000000000000  0.2353900000000024   F   F   F
  0.2500000000000000  0.2500000000000000  0.2353900000000024   F   F   F
  0.0000000000000000  0.0000000000000000  0.1103900000000024   F   F   F
  0.2500000000000000  0.0000000000000000  0.1103900000000024   F   F   F
  0.1250000000000000  0.0957799999999978  0.1875000000000000   F   F   F
  0.3750000000000000  0.0957799999999978  0.1875000000000000   F   F   F
  0.1250000000000000  0.3457799999999978  0.0625000000000000   F   F   F
  0.3750000000000000  0.3457799999999978  0.0625000000000000   F   F   F
 -0.0003640550815260  0.2505502440286226  0.3898133733747097   T   T   T
  0.2503231352940234  0.2493548898288063  0.3896368243480257   T   T   T
 -0.0000261093199750  0.9998414602185968  0.2649533124007567   T   T   T
  0.2498468838983761  0.9996742203838405  0.2648759415506378   T   T   T
  0.1242410594129373  0.4035701231871346  0.4392684950727252   T   T   T
  0.3751704518887738  0.4029004393577930  0.4359619714839523   T   T   T
  0.1248144186045361  0.1537130876446439  0.3126754853783842   T   T   T
  0.3752677949429295  0.1533436521651486  0.3125245225956171   T   T   T
  0.0005375345008311  0.2493476030423167  0.4840885470450361   T   T   T
  0.2498869722170687  0.2485127590832219  0.4838299385966163   T   T   T
  0.9971502584942060  0.9992824038114418  0.3603323392960824   T   T   T
  0.2524541851507475  0.9989857566582228  0.3604578615347981   T   T   T
  0.1247555729508946  0.0959575639304239  0.4331208097869495   T   T   T
  0.3738796362502825  0.0939831586621468  0.4388355195642289   T   T   T
  0.1251284390617262  0.3452768226901766  0.3131233752158606   T   T   T
  0.3752176326205683  0.3453022727150682  0.3127661222198502   T   T   T
  0.5000000000000000  0.2500000000000000  0.1396099999999976   F   F   F
  0.7500000000000000  0.2500000000000000  0.1396099999999976   F   F   F
  0.5000000000000000  0.0000000000000000  0.0146099999999976   F   F   F
  0.7500000000000000  0.0000000000000000  0.0146099999999976   F   F   F
  0.6250000000000000  0.4042200000000022  0.1875000000000000   F   F   F
  0.8750000000000000  0.4042200000000022  0.1875000000000000   F   F   F
  0.6250000000000000  0.1542200000000022  0.0625000000000000   F   F   F
  0.8750000000000000  0.1542200000000022  0.0625000000000000   F   F   F
  0.5000000000000000  0.2500000000000000  0.2353900000000024   F   F   F
  0.7500000000000000  0.2500000000000000  0.2353900000000024   F   F   F
  0.5000000000000000  0.0000000000000000  0.1103900000000024   F   F   F
  0.7500000000000000  0.0000000000000000  0.1103900000000024   F   F   F
  0.6250000000000000  0.0957799999999978  0.1875000000000000   F   F   F
  0.8750000000000000  0.0957799999999978  0.1875000000000000   F   F   F
  0.6250000000000000  0.3457799999999978  0.0625000000000000   F   F   F
  0.8750000000000000  0.3457799999999978  0.0625000000000000   F   F   F
  0.4999336174667268  0.2485732252143872  0.3895860001523234   T   T   T
  0.7500269425384462  0.2487145977487382  0.3897147173208189   T   T   T
  0.5002545031785774  0.9998694396184318  0.2648912643183232   T   T   T
  0.7493934207804085  0.9995138914959026  0.2648670963308635   T   T   T
  0.6248503836202596  0.4030736574117597  0.4360852053788747   T   T   T
  0.8755955035436064  0.4031610863260080  0.4391865544634591   T   T   T
  0.6248649455820412  0.1531815464064714  0.3126103399477842   T   T   T
  0.8748292251301368  0.1534262862271946  0.3125730615971538   T   T   T
  0.5001456549015351  0.2483192491439302  0.4835418888926520   T   T   T
  0.7491677183732598  0.2485048954778244  0.4838875623291086   T   T   T
  0.4996793200464933  0.9992226229024597  0.3612093927685649   T   T   T
  0.7500395299274941  0.9987524084556960  0.3611987127357169   T   T   T
  0.6247768672155621  0.0939538724252702  0.4358467682669696   T   T   T
  0.8764042069837853  0.0943603240848001  0.4385968598210640   T   T   T
  0.6248141651122648  0.3452991031826727  0.3128181150287871   T   T   T
  0.8747465271412932  0.3452061795769534  0.3129218737982511   T   T   T
  0.7472271328913261  0.9989986184727414  0.5111536337071144   T   T   T
  0.0000000000000000  0.7500000000000000  0.1396099999999976   F   F   F
  0.2500000000000000  0.7500000000000000  0.1396099999999976   F   F   F
  0.0000000000000000  0.5000000000000000  0.0146099999999976   F   F   F
  0.2500000000000000  0.5000000000000000  0.0146099999999976   F   F   F
  0.1250000000000000  0.9042200000000022  0.1875000000000000   F   F   F
  0.3750000000000000  0.9042200000000022  0.1875000000000000   F   F   F
  0.1250000000000000  0.6542200000000022  0.0625000000000000   F   F   F
  0.3750000000000000  0.6542200000000022  0.0625000000000000   F   F   F
  0.0000000000000000  0.7500000000000000  0.2353900000000024   F   F   F
  0.2500000000000000  0.7500000000000000  0.2353900000000024   F   F   F
  0.0000000000000000  0.5000000000000000  0.1103900000000024   F   F   F
  0.2500000000000000  0.5000000000000000  0.1103900000000024   F   F   F
  0.1250000000000000  0.5957799999999978  0.1875000000000000   F   F   F
  0.3750000000000000  0.5957799999999978  0.1875000000000000   F   F   F
  0.1250000000000000  0.8457799999999978  0.0625000000000000   F   F   F
  0.3750000000000000  0.8457799999999978  0.0625000000000000   F   F   F
 -0.0005454218621786  0.7468779133524180  0.3895823171163493   T   T   T
  0.2502770433986986  0.7484947586305652  0.3894820589527770   T   T   T
  0.0000414198973400  0.4997764682842661  0.2648295808287791   T   T   T
  0.2501576445542877  0.4995371900764234  0.2646742191134151   T   T   T
  0.1246342884158342  0.9014558341192112  0.4329041407152696   T   T   T
  0.3740452134656706  0.9031191493058121  0.4385768003013831   T   T   T
  0.1252972867340221  0.6535465025227098  0.3127913758752958   T   T   T
  0.3750808367889651  0.6533451270725604  0.3125385745048756   T   T   T
  0.0006651713070907  0.7479865988490887  0.4838433912773060   T   T   T
  0.2496482555391714  0.7484146659716824  0.4835838795489129   T   T   T
 -0.0000550482941974  0.4999266276875389  0.3595666553466056   T   T   T
  0.2499145964949260  0.4987197693897891  0.3613394988346229   T   T   T
  0.1242421556420188  0.5937442365469751  0.4389228565551081   T   T   T
  0.3751390174311763  0.5942782388593000  0.4359009566483068   T   T   T
  0.1246912761561117  0.8451659667656620  0.3127934241977500   T   T   T
  0.3754343035976381  0.8453023868639618  0.3126619429872640   T   T   T
  0.5000000000000000  0.7500000000000000  0.1396099999999976   F   F   F
  0.7500000000000000  0.7500000000000000  0.1396099999999976   F   F   F
  0.5000000000000000  0.5000000000000000  0.0146099999999976   F   F   F
  0.7500000000000000  0.5000000000000000  0.0146099999999976   F   F   F
  0.6250000000000000  0.9042200000000022  0.1875000000000000   F   F   F
  0.8750000000000000  0.9042200000000022  0.1875000000000000   F   F   F
  0.6250000000000000  0.6542200000000022  0.0625000000000000   F   F   F
  0.8750000000000000  0.6542200000000022  0.0625000000000000   F   F   F
  0.5000000000000000  0.7500000000000000  0.2353900000000024   F   F   F
  0.7500000000000000  0.7500000000000000  0.2353900000000024   F   F   F
  0.5000000000000000  0.5000000000000000  0.1103900000000024   F   F   F
  0.7500000000000000  0.5000000000000000  0.1103900000000024   F   F   F
  0.6250000000000000  0.5957799999999978  0.1875000000000000   F   F   F
  0.8750000000000000  0.5957799999999978  0.1875000000000000   F   F   F
  0.6250000000000000  0.8457799999999978  0.0625000000000000   F   F   F
  0.8750000000000000  0.8457799999999978  0.0625000000000000   F   F   F
  0.4999239785138666  0.7487677697145787  0.3896023461797342   T   T   T
  0.7500038639950247  0.7488087679507788  0.3896528939283567   T   T   T
  0.4999982584184376  0.4998491842696117  0.2649863609748809   T   T   T
  0.7498372330737222  0.4995185643262686  0.2646878968846889   T   T   T
  0.6248412044084701  0.9030833049670466  0.4355162370165923   T   T   T
  0.8765766347793006  0.9029841235802086  0.4385381786381697   T   T   T
  0.6249208199064014  0.6532527607576523  0.3125985594503771   T   T   T
  0.8746594706066489  0.6534366319400305  0.3126516501955128   T   T   T
  0.5001534817945312  0.7482830476844042  0.4834856976880247   T   T   T
  0.7492182261011817  0.7485102234047433  0.4838286102429922   T   T   T
  0.4999884036271688  0.4990846849885082  0.3608728168910529   T   T   T
  0.7500977967398909  0.4987625405055885  0.3613711086555699   T   T   T
  0.6248652814199744  0.5940507562013602  0.4360517225103786   T   T   T
  0.8756557747615230  0.5940776898527135  0.4389523267655704   T   T   T
  0.6247360531690975  0.8453504986440089  0.3127809362928844   T   T   T
  0.8748004181059335  0.8452386840025206  0.3126636371950358   T   T   T
  0.2271645369097325  0.9978585523629911  0.5122101171497210   T   T   T
  0.2531963148557604  0.4996720026553091  0.5115550261127441   T   T   T
  0.7474614378774005  0.4993106814032355  0.5114762346598918   T   T   T
  0.0227683454460917  0.9980443974842671  0.5124671679215610   T   T   T
  0.4998367935376944  0.4983720648181193  0.5107238682734223   T   T   T
  0.5031520377555543  0.9980541488496919  0.5114891837275877   T   T   T
  0.1239531792487839  0.9969889477046426  0.5364926146573258   T   T   T
 
  0.00000000E+00  0.00000000E+00  0.00000000E+00
  0.00000000E+00  0.00000000E+00  0.00000000E+00
  0.00000000E+00  0.00000000E+00  0.00000000E+00
  0.00000000E+00  0.00000000E+00  0.00000000E+00
  0.00000000E+00  0.00000000E+00  0.00000000E+00
  0.00000000E+00  0.00000000E+00  0.00000000E+00
  0.00000000E+00  0.00000000E+00  0.00000000E+00
  0.00000000E+00  0.00000000E+00  0.00000000E+00
  0.00000000E+00  0.00000000E+00  0.00000000E+00
  0.00000000E+00  0.00000000E+00  0.00000000E+00
  0.00000000E+00  0.00000000E+00  0.00000000E+00
  0.00000000E+00  0.00000000E+00  0.00000000E+00
  0.00000000E+00  0.00000000E+00  0.00000000E+00
  0.00000000E+00  0.00000000E+00  0.00000000E+00
  0.00000000E+00  0.00000000E+00  0.00000000E+00
  0.00000000E+00  0.00000000E+00  0.00000000E+00
  0.00000000E+00  0.00000000E+00  0.00000000E+00
  0.00000000E+00  0.00000000E+00  0.00000000E+00
  0.00000000E+00  0.00000000E+00  0.00000000E+00
  0.00000000E+00  0.00000000E+00  0.00000000E+00
  0.00000000E+00  0.00000000E+00  0.00000000E+00
  0.00000000E+00  0.00000000E+00  0.00000000E+00
  0.00000000E+00  0.00000000E+00  0.00000000E+00
  0.00000000E+00  0.00000000E+00  0.00000000E+00
  0.00000000E+00  0.00000000E+00  0.00000000E+00
  0.00000000E+00  0.00000000E+00  0.00000000E+00
  0.00000000E+00  0.00000000E+00  0.00000000E+00
  0.00000000E+00  0.00000000E+00  0.00000000E+00
  0.00000000E+00  0.00000000E+00  0.00000000E+00
  0.00000000E+00  0.00000000E+00  0.00000000E+00
  0.00000000E+00  0.00000000E+00  0.00000000E+00
  0.00000000E+00  0.00000000E+00  0.00000000E+00
  0.00000000E+00  0.00000000E+00  0.00000000E+00
  0.00000000E+00  0.00000000E+00  0.00000000E+00
  0.00000000E+00  0.00000000E+00  0.00000000E+00
  0.00000000E+00  0.00000000E+00  0.00000000E+00
  0.00000000E+00  0.00000000E+00  0.00000000E+00
  0.00000000E+00  0.00000000E+00  0.00000000E+00
  0.00000000E+00  0.00000000E+00  0.00000000E+00
  0.00000000E+00  0.00000000E+00  0.00000000E+00
  0.00000000E+00  0.00000000E+00  0.00000000E+00
  0.00000000E+00  0.00000000E+00  0.00000000E+00
  0.00000000E+00  0.00000000E+00  0.00000000E+00
  0.00000000E+00  0.00000000E+00  0.00000000E+00
  0.00000000E+00  0.00000000E+00  0.00000000E+00
  0.00000000E+00  0.00000000E+00  0.00000000E+00
  0.00000000E+00  0.00000000E+00  0.00000000E+00
  0.00000000E+00  0.00000000E+00  0.00000000E+00
  0.00000000E+00  0.00000000E+00  0.00000000E+00
  0.00000000E+00  0.00000000E+00  0.00000000E+00
  0.00000000E+00  0.00000000E+00  0.00000000E+00
  0.00000000E+00  0.00000000E+00  0.00000000E+00
  0.00000000E+00  0.00000000E+00  0.00000000E+00
  0.00000000E+00  0.00000000E+00  0.00000000E+00
  0.00000000E+00  0.00000000E+00  0.00000000E+00
  0.00000000E+00  0.00000000E+00  0.00000000E+00
  0.00000000E+00  0.00000000E+00  0.00000000E+00
  0.00000000E+00  0.00000000E+00  0.00000000E+00
  0.00000000E+00  0.00000000E+00  0.00000000E+00
  0.00000000E+00  0.00000000E+00  0.00000000E+00
  0.00000000E+00  0.00000000E+00  0.00000000E+00
  0.00000000E+00  0.00000000E+00  0.00000000E+00
  0.00000000E+00  0.00000000E+00  0.00000000E+00
  0.00000000E+00  0.00000000E+00  0.00000000E+00
  0.00000000E+00  0.00000000E+00  0.00000000E+00
  0.00000000E+00  0.00000000E+00  0.00000000E+00
  0.00000000E+00  0.00000000E+00  0.00000000E+00
  0.00000000E+00  0.00000000E+00  0.00000000E+00
  0.00000000E+00  0.00000000E+00  0.00000000E+00
  0.00000000E+00  0.00000000E+00  0.00000000E+00
  0.00000000E+00  0.00000000E+00  0.00000000E+00
  0.00000000E+00  0.00000000E+00  0.00000000E+00
  0.00000000E+00  0.00000000E+00  0.00000000E+00
  0.00000000E+00  0.00000000E+00  0.00000000E+00
  0.00000000E+00  0.00000000E+00  0.00000000E+00
  0.00000000E+00  0.00000000E+00  0.00000000E+00
  0.00000000E+00  0.00000000E+00  0.00000000E+00
  0.00000000E+00  0.00000000E+00  0.00000000E+00
  0.00000000E+00  0.00000000E+00  0.00000000E+00
  0.00000000E+00  0.00000000E+00  0.00000000E+00
  0.00000000E+00  0.00000000E+00  0.00000000E+00
  0.00000000E+00  0.00000000E+00  0.00000000E+00
  0.00000000E+00  0.00000000E+00  0.00000000E+00
  0.00000000E+00  0.00000000E+00  0.00000000E+00
  0.00000000E+00  0.00000000E+00  0.00000000E+00
  0.00000000E+00  0.00000000E+00  0.00000000E+00
  0.00000000E+00  0.00000000E+00  0.00000000E+00
  0.00000000E+00  0.00000000E+00  0.00000000E+00
  0.00000000E+00  0.00000000E+00  0.00000000E+00
  0.00000000E+00  0.00000000E+00  0.00000000E+00
  0.00000000E+00  0.00000000E+00  0.00000000E+00
  0.00000000E+00  0.00000000E+00  0.00000000E+00
  0.00000000E+00  0.00000000E+00  0.00000000E+00
  0.00000000E+00  0.00000000E+00  0.00000000E+00
  0.00000000E+00  0.00000000E+00  0.00000000E+00
  0.00000000E+00  0.00000000E+00  0.00000000E+00
  0.00000000E+00  0.00000000E+00  0.00000000E+00
  0.00000000E+00  0.00000000E+00  0.00000000E+00
  0.00000000E+00  0.00000000E+00  0.00000000E+00
  0.00000000E+00  0.00000000E+00  0.00000000E+00
  0.00000000E+00  0.00000000E+00  0.00000000E+00
  0.00000000E+00  0.00000000E+00  0.00000000E+00
  0.00000000E+00  0.00000000E+00  0.00000000E+00
  0.00000000E+00  0.00000000E+00  0.00000000E+00
  0.00000000E+00  0.00000000E+00  0.00000000E+00
  0.00000000E+00  0.00000000E+00  0.00000000E+00
  0.00000000E+00  0.00000000E+00  0.00000000E+00
  0.00000000E+00  0.00000000E+00  0.00000000E+00
  0.00000000E+00  0.00000000E+00  0.00000000E+00
  0.00000000E+00  0.00000000E+00  0.00000000E+00
  0.00000000E+00  0.00000000E+00  0.00000000E+00
  0.00000000E+00  0.00000000E+00  0.00000000E+00
  0.00000000E+00  0.00000000E+00  0.00000000E+00
  0.00000000E+00  0.00000000E+00  0.00000000E+00
  0.00000000E+00  0.00000000E+00  0.00000000E+00
  0.00000000E+00  0.00000000E+00  0.00000000E+00
  0.00000000E+00  0.00000000E+00  0.00000000E+00
  0.00000000E+00  0.00000000E+00  0.00000000E+00
  0.00000000E+00  0.00000000E+00  0.00000000E+00
  0.00000000E+00  0.00000000E+00  0.00000000E+00
  0.00000000E+00  0.00000000E+00  0.00000000E+00
  0.00000000E+00  0.00000000E+00  0.00000000E+00
  0.00000000E+00  0.00000000E+00  0.00000000E+00
  0.00000000E+00  0.00000000E+00  0.00000000E+00
  0.00000000E+00  0.00000000E+00  0.00000000E+00
  0.00000000E+00  0.00000000E+00  0.00000000E+00
  0.00000000E+00  0.00000000E+00  0.00000000E+00
  0.00000000E+00  0.00000000E+00  0.00000000E+00
  0.00000000E+00  0.00000000E+00  0.00000000E+00
  0.00000000E+00  0.00000000E+00  0.00000000E+00
  0.00000000E+00  0.00000000E+00  0.00000000E+00
  0.00000000E+00  0.00000000E+00  0.00000000E+00
  0.00000000E+00  0.00000000E+00  0.00000000E+00
  0.00000000E+00  0.00000000E+00  0.00000000E+00
  0.00000000E+00  0.00000000E+00  0.00000000E+00
  0.00000000E+00  0.00000000E+00  0.00000000E+00
  0.00000000E+00  0.00000000E+00  0.00000000E+00
  0.00000000E+00  0.00000000E+00  0.00000000E+00
  0.00000000E+00  0.00000000E+00  0.00000000E+00
  0.00000000E+00  0.00000000E+00  0.00000000E+00
  0.00000000E+00  0.00000000E+00  0.00000000E+00
  0.00000000E+00  0.00000000E+00  0.00000000E+00
  0.00000000E+00  0.00000000E+00  0.00000000E+00
  0.00000000E+00  0.00000000E+00  0.00000000E+00
  0.00000000E+00  0.00000000E+00  0.00000000E+00
  0.00000000E+00  0.00000000E+00  0.00000000E+00
  0.00000000E+00  0.00000000E+00  0.00000000E+00
  0.00000000E+00  0.00000000E+00  0.00000000E+00
  0.00000000E+00  0.00000000E+00  0.00000000E+00
  0.00000000E+00  0.00000000E+00  0.00000000E+00
  0.00000000E+00  0.00000000E+00  0.00000000E+00
  0.00000000E+00  0.00000000E+00  0.00000000E+00
  0.00000000E+00  0.00000000E+00  0.00000000E+00
  0.00000000E+00  0.00000000E+00  0.00000000E+00
  0.00000000E+00  0.00000000E+00  0.00000000E+00
  0.00000000E+00  0.00000000E+00  0.00000000E+00
  0.00000000E+00  0.00000000E+00  0.00000000E+00
  0.00000000E+00  0.00000000E+00  0.00000000E+00
  0.00000000E+00  0.00000000E+00  0.00000000E+00
  0.00000000E+00  0.00000000E+00  0.00000000E+00
  0.00000000E+00  0.00000000E+00  0.00000000E+00
  0.00000000E+00  0.00000000E+00  0.00000000E+00
  0.00000000E+00  0.00000000E+00  0.00000000E+00
  0.00000000E+00  0.00000000E+00  0.00000000E+00
  0.00000000E+00  0.00000000E+00  0.00000000E+00
  0.00000000E+00  0.00000000E+00  0.00000000E+00
  0.00000000E+00  0.00000000E+00  0.00000000E+00
  0.00000000E+00  0.00000000E+00  0.00000000E+00
  0.00000000E+00  0.00000000E+00  0.00000000E+00
  0.00000000E+00  0.00000000E+00  0.00000000E+00
  0.00000000E+00  0.00000000E+00  0.00000000E+00
  0.00000000E+00  0.00000000E+00  0.00000000E+00
  0.00000000E+00  0.00000000E+00  0.00000000E+00
  0.00000000E+00  0.00000000E+00  0.00000000E+00
  0.00000000E+00  0.00000000E+00  0.00000000E+00
  0.00000000E+00  0.00000000E+00  0.00000000E+00
  0.00000000E+00  0.00000000E+00  0.00000000E+00
  0.00000000E+00  0.00000000E+00  0.00000000E+00
  0.00000000E+00  0.00000000E+00  0.00000000E+00
  0.00000000E+00  0.00000000E+00  0.00000000E+00
  0.00000000E+00  0.00000000E+00  0.00000000E+00
  0.00000000E+00  0.00000000E+00  0.00000000E+00
  0.00000000E+00  0.00000000E+00  0.00000000E+00
  0.00000000E+00  0.00000000E+00  0.00000000E+00
  0.00000000E+00  0.00000000E+00  0.00000000E+00
  0.00000000E+00  0.00000000E+00  0.00000000E+00
  0.00000000E+00  0.00000000E+00  0.00000000E+00
  0.00000000E+00  0.00000000E+00  0.00000000E+00
  0.00000000E+00  0.00000000E+00  0.00000000E+00
  0.00000000E+00  0.00000000E+00  0.00000000E+00
  0.00000000E+00  0.00000000E+00  0.00000000E+00
  0.00000000E+00  0.00000000E+00  0.00000000E+00
  0.00000000E+00  0.00000000E+00  0.00000000E+00
  0.00000000E+00  0.00000000E+00  0.00000000E+00
  0.00000000E+00  0.00000000E+00  0.00000000E+00
  0.00000000E+00  0.00000000E+00  0.00000000E+00
  0.00000000E+00  0.00000000E+00  0.00000000E+00
  0.00000000E+00  0.00000000E+00  0.00000000E+00
  0.00000000E+00  0.00000000E+00  0.00000000E+00
  0.00000000E+00  0.00000000E+00  0.00000000E+00
